LAMMPS (7 Feb 2024 - Update 1)
OMP_NUM_THREADS environment is not set. Defaulting to 1 thread. (src/comm.cpp:98)
  using 1 OpenMP thread(s) per MPI task
units real
boundary p p p
atom_style full
read_data lmp.data
Reading data file ...
  orthogonal box = (-100 -100 -100) to (100 100 100)
  1 by 1 by 1 MPI processor grid
  reading atoms ...
  3281 atoms
  scanning bonds ...
  11 = max bonds/atom
  reading bonds ...
  3521 bonds
Finding 1-2 1-3 1-4 neighbors ...
  special bond factors lj:    0        0        0       
  special bond factors coul:  0        0        0       
    13 = max # of 1-2 neighbors
    81 = max # of 1-3 neighbors
   604 = max # of 1-4 neighbors
    41 = max # of special neighbors
  special bonds CPU = 0.008 seconds
  read_data CPU = 0.023 seconds

bond_style harmonic
angle_style charmm
dihedral_style charmm
improper_style harmonic

kspace_style pppm 1e-4
pair_style hybrid lj/cut/coul/long 10.0

# 1  C
# 2  Fe
# 3  H
# 4  N
# 5  O
# 6  S

# Pair coefficients (unchanged)
pair_coeff 3 3 lj/cut/coul/long 0.5 2.846
pair_coeff 5 5 lj/cut/coul/long 0.2  2.85
pair_coeff 4 4 lj/cut/coul/long 0.17 3.250
pair_coeff 1 1 lj/cut/coul/long 0.12 3.30
pair_coeff 6 6 lj/cut/coul/long 0.27 3.59
pair_coeff 2 2 lj/cut/coul/long 0.013 2.32
pair_modify mix arithmetic
neigh_modify delay 1 every 1 check yes one 2000
bond_coeff 1 0 0

# Create results folder
variable results string "simulation_results"
shell rmdir ${results}
shell rmdir simulation_results
shell mkdir ${results}
shell mkdir simulation_results
shell cd ${results}
shell cd simulation_results

# Define ligand region and group
region ligand_region block 48.5 50.5 -43.5 -41 12.9 14.7
group ligand_group region ligand_region
1 atoms in group ligand_group
set group ligand_group charge -0.5
Setting atom values ...
  1 settings made for charge

# Set Fe charge
set type 2 charge 5  # Warning: Extremely high charge (verify if intentional)
Setting atom values ...
  1 settings made for charge

# Define groups for Fe and charged O
group Fe_Atoms type 2
1 atoms in group Fe_Atoms
#group O_ligand type 5 region ligand_region  # Critical: Only 1 O in this region

# Verify groups contain exactly 1 atom each
variable Fe_count equal count(Fe_Atoms)
variable O_count equal count(ligand_group)
print "Fe atoms: ${Fe_count}, O in ligand: ${O_count}"
Fe atoms: 1, O in ligand: 1

# Compute coordinates using global averages (works for single-atom groups)
compute Fe_x Fe_Atoms property/atom xs
compute Fe_y Fe_Atoms property/atom yu
compute Fe_z Fe_Atoms property/atom zu
compute O_x ligand_group property/atom xu
compute O_y ligand_group property/atom yu
compute O_z ligand_group property/atom zu

compute Fe_avg all reduce ave c_Fe_x c_Fe_y c_Fe_z
compute O_avg all reduce ave c_O_x c_O_y c_O_z

# Calculate distance
#variable dx equal c_O_x-c_Fe_x
variable dx equal c_O_avg[1]-c_Fe_avg[1]
variable dy equal c_O_avg[2]-c_Fe_avg[2]
variable dz equal c_O_avg[3]-c_Fe_avg[3]
variable distance equal v_dx#sqrt(v_dx^2+v_dy^2+v_dz^2)

# Output
dump 1 all custom 100 dmp.*.txt id type x y z mass
thermo_style custom step temp press lx ke pe etotal density v_distance
thermo 100

# Simulation
minimize 0.0 0.0 1000 10000
Switching to 'neigh_modify every 1 delay 0 check yes' setting during minimization
PPPM initialization ...
WARNING: System is not charge neutral, net charge = 4.5 (src/kspace.cpp:327)
  using 12-bit tables for long-range coulomb (src/kspace.cpp:342)
  G vector (1/distance) = 0.17549664
  grid = 40 40 40
  stencil order = 5
  estimated absolute RMS force accuracy = 0.0021284123
  estimated relative force accuracy = 6.4096503e-06
  using double precision FFTW3
  3d grid and FFT values/proc = 91125 64000
Generated 15 of 15 mixed pair_coeff terms from arithmetic mixing rule
Neighbor list info ...
  update: every = 1 steps, delay = 0 steps, check = yes
  max neighbors/atom: 2000, page size: 100000
  master list distance cutoff = 12
  ghost atom cutoff = 12
  binsize = 6, bins = 34 34 34
  1 neighbor lists, perpetual/occasional/extra = 1 0 0
  (1) pair lj/cut/coul/long, perpetual
      attributes: half, newton on
      pair build: half/bin/newton
      stencil: half/bin/3d
      bin: standard
Per MPI rank memory allocation (min/avg/max) = 23.66 | 23.66 | 23.66 Mbytes
   Step          Temp          Press            Lx           KinEng         PotEng         TotEng        Density       v_distance  
         0   0              909122.13      200            0              26480286       26480286       0.0046049851   0.014756469  
       100   0             -98.675818      200            0             -18753.102     -18753.102      0.0046049851   0.014641488  
       200   0             -90.551634      200            0             -19739.934     -19739.934      0.0046049851   0.01461289   
       300   0             -86.477906      200            0             -20171.586     -20171.586      0.0046049851   0.01459889   
       400   0             -83.627251      200            0             -20482.852     -20482.852      0.0046049851   0.014588237  
       500   0             -81.155047      200            0             -20733.499     -20733.499      0.0046049851   0.01457913   
       600   0             -79.192137      200            0             -20923.244     -20923.244      0.0046049851   0.014571762  
       700   0             -77.653674      200            0             -21071.156     -21071.156      0.0046049851   0.01456576   
       800   0             -76.180989      200            0             -21212.448     -21212.448      0.0046049851   0.014559845  
       900   0             -74.612756      200            0             -21362.011     -21362.011      0.0046049851   0.014553392  
      1000   0             -73.498528      200            0             -21469.272     -21469.272      0.0046049851   0.014548649  
Loop time of 86.9844 on 1 procs for 1000 steps with 3281 atoms

108.9% CPU use with 1 MPI tasks x 1 OpenMP threads

Minimization stats:
  Stopping criterion = max iterations
  Energy initial, next-to-last, final = 
      26480285.5604601  -21466.7764263884  -21469.2719414779
  Force two-norm initial, final = 3.2101261e+08 58.438902
  Force max component initial, final = 1.5469702e+08 4.389112
  Final line search alpha, max atom move = 0.00071620957 0.003143524
  Iterations, force evaluations = 1000 5965

MPI task timing breakdown:
Section |  min time  |  avg time  |  max time  |%varavg| %total
---------------------------------------------------------------
Pair    | 65.673     | 65.673     | 65.673     |   0.0 | 75.50
Bond    | 0.20118    | 0.20118    | 0.20118    |   0.0 |  0.23
Kspace  | 20.74      | 20.74      | 20.74      |   0.0 | 23.84
Neigh   | 0.10249    | 0.10249    | 0.10249    |   0.0 |  0.12
Comm    | 0.0079664  | 0.0079664  | 0.0079664  |   0.0 |  0.01
Output  | 0.017743   | 0.017743   | 0.017743   |   0.0 |  0.02
Modify  | 0          | 0          | 0          |   0.0 |  0.00
Other   |            | 0.2418     |            |       |  0.28

Nlocal:           3281 ave        3281 max        3281 min
Histogram: 1 0 0 0 0 0 0 0 0 0
Nghost:              0 ave           0 max           0 min
Histogram: 1 0 0 0 0 0 0 0 0 0
Neighs:    1.00419e+06 ave 1.00419e+06 max 1.00419e+06 min
Histogram: 1 0 0 0 0 0 0 0 0 0

Total # of neighbors = 1004194
Ave neighs/atom = 306.0634
Ave special neighs/atom = 10.796099
Neighbor list builds = 10
Dangerous builds = 0
velocity all create 300.0 1234567 mom yes rot yes dist gaussian
fix 1 all nve
timestep 0.1
run 30000
PPPM initialization ...
  using 12-bit tables for long-range coulomb (src/kspace.cpp:342)
  G vector (1/distance) = 0.17549664
  grid = 40 40 40
  stencil order = 5
  estimated absolute RMS force accuracy = 0.0021284123
  estimated relative force accuracy = 6.4096503e-06
  using double precision FFTW3
  3d grid and FFT values/proc = 91125 64000
Generated 15 of 15 mixed pair_coeff terms from arithmetic mixing rule
Per MPI rank memory allocation (min/avg/max) = 25.45 | 25.45 | 25.45 Mbytes
   Step          Temp          Press            Lx           KinEng         PotEng         TotEng        Density       v_distance  
      1000   300           -56.738596      200            2933.1171     -21469.272     -18536.155      0.0046049851   0.014548649  
      1100   194.32105     -13.71185       200            1899.888      -20436.666     -18536.779      0.0046049851   0.014543235  
      1200   204.77391     -30.669266      200            2002.0862     -20539.315     -18537.229      0.0046049851   0.014537416  
      1300   194.19792     -35.188636      200            1898.6842     -20436.543     -18537.858      0.0046049851   0.014531192  
      1400   179.81285     -28.911448      200            1758.0405     -20296.53      -18538.489      0.0046049851   0.014524562  
      1500   176.63213     -24.113334      200            1726.9424     -20266.332     -18539.39       0.0046049851   0.014517525  
      1600   189.81414     -25.724218      200            1855.8237     -20396.313     -18540.489      0.0046049851   0.014510081  
      1700   201.47739     -24.288937      200            1969.8559     -20512.231     -18542.375      0.0046049851   0.014502229  
      1800   215.26209     -23.848898      200            2104.6297     -20649.121     -18544.491      0.0046049851   0.014493969  
      1900   229.22069     -25.949363      200            2241.1038     -20787.38      -18546.276      0.0046049851   0.0144853    
      2000   237.16307     -27.972859      200            2318.7569     -20866.753     -18547.996      0.0046049851   0.014476221  
      2100   247.04873     -29.699466      200            2415.4095     -20965.469     -18550.059      0.0046049851   0.014466731  
      2200   253.54425     -29.585631      200            2478.9166     -21030.949     -18552.033      0.0046049851   0.014456829  
      2300   260.94854     -28.334304      200            2551.3087     -21105.079     -18553.77       0.0046049851   0.014446515  
      2400   269.49572     -27.314946      200            2634.875      -21190.37      -18555.494      0.0046049851   0.014435788  
      2500   274.43915     -25.276975      200            2683.2072     -21240.621     -18557.414      0.0046049851   0.01442465   
      2600   277.68002     -23.08961       200            2714.8934     -21274.758     -18559.865      0.0046049851   0.014413097  
      2700   281.05998     -19.525723      200            2747.9395     -21310.32      -18562.381      0.0046049851   0.01440113   
      2800   285.62886     -15.703853      200            2792.6097     -21357.474     -18564.865      0.0046049851   0.014388748  
      2900   293.07551     -14.941426      200            2865.416      -21432.353     -18566.937      0.0046049851   0.014375953  
      3000   293.79316     -11.9282        200            2872.4324     -21441.647     -18569.215      0.0046049851   0.014362742  
      3100   303.86306     -11.278045      200            2970.8865     -21542.272     -18571.386      0.0046049851   0.014349111  
      3200   311.27317     -8.4862569      200            3043.3355     -21617.296     -18573.96       0.0046049851   0.014335057  
      3300   318.77456     -5.1599913      200            3116.677      -21693.612     -18576.935      0.0046049851   0.014320579  
      3400   321.82218      1.040409       200            3146.4738     -21726.201     -18579.727      0.0046049851   0.014305678  
      3500   331.70721      1.619476       200            3243.1203     -21825.445     -18582.325      0.0046049851   0.014290352  
      3600   332.76124      2.9430489      200            3253.4256     -21837.77      -18584.345      0.0046049851   0.014274596  
      3700   336.7818       5.8528493      200            3292.7348     -21879.699     -18586.964      0.0046049851   0.014258409  
      3800   338.47384      9.8921086      200            3309.278      -21898.942     -18589.664      0.0046049851   0.014241793  
      3900   341.64345      13.131494      200            3340.2674     -21932.764     -18592.496      0.0046049851   0.014224746  
      4000   354.8662       12.713903      200            3469.547      -22064.522     -18594.975      0.0046049851   0.014207265  
      4100   355.89082      17.664073      200            3479.5648     -22076.78      -18597.215      0.0046049851   0.014189351  
      4200   362.03957      20.767176      200            3539.6815     -22138.785     -18599.103      0.0046049851   0.014171008  
      4300   363.09156      23.310977      200            3549.9669     -22151.126     -18601.16       0.0046049851   0.014152234  
      4400   363.54717      26.038679      200            3554.4214     -22157.523     -18603.102      0.0046049851   0.014133022  
      4500   370.77502      23.836287      200            3625.0885     -22229.472     -18604.384      0.0046049851   0.014113371  
      4600   369.54724      24.196914      200            3613.0845     -22218.522     -18605.437      0.0046049851   0.014093278  
      4700   375.01271      22.916123      200            3666.5206     -22273.154     -18606.634      0.0046049851   0.014072741  
      4800   375.17256      25.421888      200            3668.0835     -22276.024     -18607.94       0.0046049851   0.014051759  
      4900   377.11125      27.808551      200            3687.0381     -22296.619     -18609.58       0.0046049851   0.01403033   
      5000   383.5534       26.376353      200            3750.0234     -22361.165     -18611.141      0.0046049851   0.01400845   
      5100   386.79727      27.112912      200            3781.7389     -22394.276     -18612.537      0.0046049851   0.013986114  
      5200   387.66272      27.27043       200            3790.2005     -22403.381     -18613.181      0.0046049851   0.013963321  
      5300   395.47265      22.540918      200            3866.5586     -22479.042     -18612.483      0.0046049851   0.013940072  
      5400   387.47805      23.99822       200            3788.395      -22400.465     -18612.07       0.0046049851   0.013916364  
      5500   389.93026      20.884087      200            3812.3703     -22424.592     -18612.221      0.0046049851   0.013892193  
      5600   391.57298      19.569542      200            3828.4314     -22440.962     -18612.53       0.0046049851   0.013867551  
      5700   395.31477      16.81967       200            3865.015      -22477.409     -18612.394      0.0046049851   0.013842433  
      5800   389.61653      20.295003      200            3809.303      -22421.459     -18612.156      0.0046049851   0.013816834  
      5900   395.54259      17.685795      200            3867.2424     -22479.243     -18612.001      0.0046049851   0.01379074   
      6000   392.87649      15.143138      200            3841.1759     -22452.756     -18611.58       0.0046049851   0.013764129  
      6100   389.86984      11.23472       200            3811.7796     -22422.985     -18611.205      0.0046049851   0.013736963  
      6200   383.99766      13.33335       200            3754.367      -22364.901     -18610.534      0.0046049851   0.013709197  
      6300   387.22891      10.383214      200            3785.9591     -22395.668     -18609.709      0.0046049851   0.013680791  
      6400   392.15195      4.2861482      200            3834.0919     -22443.161     -18609.069      0.0046049851   0.013651894  
      6500   383.06628      7.4748622      200            3745.2609     -22353.656     -18608.396      0.0046049851   0.013623789  
      6600   390.09572      6.0138439      200            3813.9881     -22422.116     -18608.128      0.0046049851   0.013599206  
      6700   389.33465      4.1352504      200            3806.5471     -22413.895     -18607.348      0.0046049851   0.013576792  
      6800   387.10931      2.7968372      200            3784.7897     -22391.339     -18606.549      0.0046049851   0.013554242  
      6900   386.60783     -1.2393405      200            3779.8868     -22385.412     -18605.526      0.0046049851   0.013531092  
      7000   385.95827     -3.0177212      200            3773.5359     -22378.307     -18604.771      0.0046049851   0.013507331  
      7100   386.76577     -3.0861107      200            3781.4309     -22385.678     -18604.247      0.0046049851   0.013482987  
      7200   391.78094     -3.177237       200            3830.4645     -22434.103     -18603.638      0.0046049851   0.013458083  
      7300   386.46963     -1.7147132      200            3778.5356     -22381.955     -18603.419      0.0046049851   0.013432629  
      7400   386.94621     -6.0269409      200            3783.1951     -22385.897     -18602.702      0.0046049851   0.01340663   
      7500   382.88237     -8.4329926      200            3743.4627     -22345.575     -18602.112      0.0046049851   0.013380088  
      7600   381.78225     -8.5707551      200            3732.7068     -22334.466     -18601.759      0.0046049851   0.013353002  
      7700   389.69893     -7.9423997      200            3810.1086     -22412.33      -18602.221      0.0046049851   0.013325371  
      7800   390.20197     -4.3535123      200            3815.0269     -22417.779     -18602.752      0.0046049851   0.013297185  
      7900   392.79937     -3.5908657      200            3840.4218     -22443.833     -18603.411      0.0046049851   0.013268434  
      8000   397.15035     -3.7445031      200            3882.9616     -22487.102     -18604.14       0.0046049851   0.013239106  
      8100   392.20152      0.2477798      200            3834.5766     -22438.951     -18604.374      0.0046049851   0.013209189  
      8200   398.7737      -3.4476893      200            3898.8332     -22503.048     -18604.215      0.0046049851   0.013178665  
      8300   397.39545     -5.0081091      200            3885.358      -22489.104     -18603.747      0.0046049851   0.013147508  
      8400   394.72701     -5.9229056      200            3859.2684     -22462.8       -18603.532      0.0046049851   0.013115692  
      8500   393.44961     -5.7176254      200            3846.7793     -22450.493     -18603.714      0.0046049851   0.013083181  
      8600   392.59643     -5.5200826      200            3838.4376     -22442.437     -18603.999      0.0046049851   0.013049935  
      8700   391.50978     -3.8731302      200            3827.8134     -22432.389     -18604.576      0.0046049851   0.013015931  
      8800   390.64387     -3.0884404      200            3819.3474     -22424.779     -18605.431      0.0046049851   0.012981208  
      8900   391.8702      -3.5821302      200            3831.3373     -22437.753     -18606.416      0.0046049851   0.012945934  
      9000   400.49882     -6.8959605      200            3915.6998     -22522.931     -18607.231      0.0046049851   0.012910485  
      9100   399.67906     -2.4722616      200            3907.6849     -22515.992     -18608.307      0.0046049851   0.012875223  
      9200   399.38354     -0.20039882     200            3904.7956     -22513.847     -18609.051      0.0046049851   0.01284005   
      9300   402.95372     -2.5148524      200            3939.7015     -22549.544     -18609.843      0.0046049851   0.012804544  
      9400   406.46791     -4.5448783      200            3974.0599     -22584.823     -18610.763      0.0046049851   0.012768409  
      9500   399.90797     -0.87265004     200            3909.923      -22521.787     -18611.864      0.0046049851   0.012731537  
      9600   402.94251     -1.5955752      200            3939.5919     -22552.774     -18613.182      0.0046049851   0.012693914  
      9700   404.75473     -0.75882667     200            3957.3101     -22571.737     -18614.427      0.0046049851   0.012655552  
      9800   403.12232      2.5357569      200            3941.3499     -22557.196     -18615.846      0.0046049851   0.012616467  
      9900   410.85667     -1.0516682      200            4016.969      -22633.583     -18616.614      0.0046049851   0.012576662  
     10000   402.00219      2.3306291      200            3930.3983     -22547.842     -18617.443      0.0046049851   0.012536141  
     10100   404.17438      2.1582996      200            3951.6359     -22569.423     -18617.787      0.0046049851   0.012494905  
     10200   408.77099      1.0046086      200            3996.5773     -22614.642     -18618.065      0.0046049851   0.01245296   
     10300   402.4802       4.8569736      200            3935.0718     -22553.343     -18618.271      0.0046049851   0.012410305  
     10400   407.11541      3.8069499      200            3980.3906     -22599.268     -18618.877      0.0046049851   0.012366924  
     10500   408.54098      4.2178404      200            3994.3285     -22613.681     -18619.352      0.0046049851   0.012322803  
     10600   400.95006      9.0314659      200            3920.1116     -22540.066     -18619.955      0.0046049851   0.012277928  
     10700   408.10658      6.6512971      200            3990.0813     -22609.925     -18619.844      0.0046049851   0.012232289  
     10800   407.07768      5.1022369      200            3980.0216     -22599.968     -18619.947      0.0046049851   0.012185877  
     10900   407.4091       6.9310465      200            3983.262      -22603.472     -18620.21       0.0046049851   0.012138682  
     11000   408.8694       9.8949679      200            3997.5394     -22617.828     -18620.288      0.0046049851   0.012090694  
     11100   412.78073      7.8362874      200            4035.7807     -22655.634     -18619.854      0.0046049851   0.0120419    
     11200   411.52696      6.1933403      200            4023.5225     -22642.822     -18619.299      0.0046049851   0.011992288  
     11300   408.95297      4.6256901      200            3998.3565     -22616.974     -18618.617      0.0046049851   0.011941846  
     11400   411.38481      3.1780926      200            4022.1327     -22640.549     -18618.416      0.0046049851   0.011890559  
     11500   408.17111      7.1256758      200            3990.7122     -22609.09      -18618.378      0.0046049851   0.01183841   
     11600   415.25976      5.0394361      200            4060.0183     -22678.249     -18618.231      0.0046049851   0.011785382  
     11700   414.46874      5.1254181      200            4052.2844     -22670.67      -18618.385      0.0046049851   0.011731452  
     11800   414.64474      6.725012       200            4054.0053     -22672.58      -18618.575      0.0046049851   0.011676596  
     11900   414.26293      8.3004699      200            4050.2723     -22668.803     -18618.531      0.0046049851   0.011620787  
     12000   414.98964      10.516146      200            4057.3774     -22675.668     -18618.291      0.0046049851   0.011563994  
     12100   410.5509       10.283059      200            4013.9795     -22632.025     -18618.045      0.0046049851   0.011506182  
     12200   415.79767      6.2563423      200            4065.2775     -22682.44      -18617.162      0.0046049851   0.01144733   
     12300   415.67216      6.3512305      200            4064.0504     -22680.709     -18616.659      0.0046049851   0.011387434  
     12400   414.52001      3.5997977      200            4052.7858     -22668.726     -18615.94       0.0046049851   0.011326555  
     12500   414.24954     -1.4329839      200            4050.1413     -22665.557     -18615.415      0.0046049851   0.01126489   
     12600   413.92017     -2.7337062      200            4046.9211     -22662.211     -18615.29       0.0046049851   0.011202863  
     12700   411.19094      1.8244064      200            4020.2372     -22635.89      -18615.653      0.0046049851   0.011141082  
     12800   417.52786      3.8563951      200            4082.1937     -22698.087     -18615.893      0.0046049851   0.01107996   
     12900   416.97118      4.6879475      200            4076.751      -22692.541     -18615.79       0.0046049851   0.011019387  
     13000   413.20799      7.3851732      200            4039.9581     -22655.556     -18615.598      0.0046049851   0.010959448  
     13100   413.38927      8.4573255      200            4041.7304     -22657.109     -18615.378      0.0046049851   0.010901775  
     13200   417.48547      4.1291845      200            4081.7792     -22696.23      -18614.45       0.0046049851   0.010849412  
     13300   413.58539      2.0894975      200            4043.648      -22657.519     -18613.871      0.0046049851   0.010803     
     13400   414.02096     -1.7859545      200            4047.9065     -22661.451     -18613.544      0.0046049851   0.010759485  
     13500   413.26448     -0.02402912     200            4040.5104     -22653.991     -18613.481      0.0046049851   0.010716161  
     13600   411.33326      3.0528536      200            4021.6288     -22634.726     -18613.097      0.0046049851   0.010671885  
     13700   411.43198      2.9357391      200            4022.5939     -22635.398     -18612.804      0.0046049851   0.010626284  
     13800   409.69323      1.8345995      200            4005.5941     -22617.708     -18612.114      0.0046049851   0.010579228  
     13900   407.69425      2.3676986      200            3986.0499     -22597.945     -18611.895      0.0046049851   0.010530658  
     14000   416.62515     -0.55515978     200            4073.3678     -22685.073     -18611.706      0.0046049851   0.010480535  
     14100   412.06289      1.3769031      200            4028.7623     -22640.303     -18611.541      0.0046049851   0.010428833  
     14200   413.36183      0.53862628     200            4041.4622     -22652.412     -18610.95       0.0046049851   0.010375549  
     14300   418.23528      0.45928426     200            4089.1102     -22699.741     -18610.631      0.0046049851   0.010320749  
     14400   414.68458      2.6277077      200            4054.3948     -22664.587     -18610.192      0.0046049851   0.010264665  
     14500   417.37516     -0.60250518     200            4080.7007     -22690.6       -18609.899      0.0046049851   0.010207854  
     14600   419.59637     -2.7455788      200            4102.4176     -22711.9       -18609.482      0.0046049851   0.010151373  
     14700   413.40918     -0.19927214     200            4041.9251     -22650.692     -18608.767      0.0046049851   0.010096901  
     14800   416.04401     -3.628667       200            4067.686      -22676.11      -18608.424      0.0046049851   0.01004757   
     14900   416.05903     -2.1376391      200            4067.8328     -22675.98      -18608.147      0.0046049851   0.01000564   
     15000   412.25078      1.2427797      200            4030.5994     -22638.754     -18608.155      0.0046049851   0.0099669459 
     15100   415.36628     -1.0948955      200            4061.0598     -22669.157     -18608.098      0.0046049851   0.0099313835 
     15200   414.34547     -0.1039931      200            4051.0793     -22659.209     -18608.13       0.0046049851   0.0098995139 
     15300   409.49817      1.9656965      200            4003.6869     -22611.925     -18608.238      0.0046049851   0.0098678457 
     15400   413.70159      0.60669128     200            4044.784      -22653.071     -18608.288      0.0046049851   0.0098344388 
     15500   411.1757       1.8726374      200            4020.0882     -22627.893     -18607.805      0.0046049851   0.0097990809 
     15600   415.31765     -2.227707       200            4060.5843     -22667.889     -18607.305      0.0046049851   0.0097625089 
     15700   412.57485     -2.3362612      200            4033.7678     -22640.54      -18606.772      0.0046049851   0.0097257244 
     15800   414.77172     -2.2664193      200            4055.2468     -22662.058     -18606.812      0.0046049851   0.0096884377 
     15900   408.22758     -1.5755104      200            3991.2643     -22598.149     -18606.884      0.0046049851   0.0096503178 
     16000   413.29341     -3.690234       200            4040.7932     -22648.269     -18607.476      0.0046049851   0.0096108161 
     16100   412.60165      0.79564269     200            4034.0298     -22642.219     -18608.189      0.0046049851   0.0095694671 
     16200   412.28086      2.5841184      200            4030.8934     -22639.602     -18608.708      0.0046049851   0.0095263724 
     16300   407.94037      3.3654387      200            3988.4563     -22597.081     -18608.625      0.0046049851   0.0094842538 
     16400   414.431        0.59314334     200            4051.9155     -22660.425     -18608.509      0.0046049851   0.009447848  
     16500   410.55976      1.1605265      200            4014.0662     -22622.561     -18608.494      0.0046049851   0.0094121957 
     16600   415.82402     -1.9745285      200            4065.5351     -22673.817     -18608.282      0.0046049851   0.009374434  
     16700   417.52356     -2.2998519      200            4082.1517     -22690.286     -18608.134      0.0046049851   0.0093347804 
     16800   420.65034     -1.3731577      200            4112.7223     -22721.174     -18608.451      0.0046049851   0.0092951448 
     16900   419.65815     -0.40292128     200            4103.0216     -22711.455     -18608.433      0.0046049851   0.0092556923 
     17000   415.72764      1.8749935      200            4064.5928     -22673.267     -18608.675      0.0046049851   0.0092147799 
     17100   416.76278      2.1088558      200            4074.7135     -22683.442     -18608.728      0.0046049851   0.0091725441 
     17200   417.5317       1.1222638      200            4082.2312     -22690.538     -18608.307      0.0046049851   0.00913031   
     17300   417.39627      0.30003849     200            4080.9071     -22688.382     -18607.475      0.0046049851   0.0090900474 
     17400   419.99657     -1.8635947      200            4106.3303     -22713.313     -18606.983      0.0046049851   0.0090532277 
     17500   413.26508     -0.16365256     200            4040.5162     -22647.378     -18606.862      0.0046049851   0.0090211159 
     17600   408.62429     -0.19249587     200            3995.1429     -22601.942     -18606.799      0.0046049851   0.00899326   
     17700   409.38407     -1.5447937      200            4002.5714     -22609.317     -18606.746      0.0046049851   0.0089656387 
     17800   406.74145      2.3776434      200            3976.7343     -22583.564     -18606.83       0.0046049851   0.0089353183 
     17900   406.77703      3.7110673      200            3977.0822     -22584.144     -18607.061      0.0046049851   0.0089016396 
     18000   411.04981      1.9612533      200            4018.8574     -22625.975     -18607.118      0.0046049851   0.0088646359 
     18100   414.55483      0.11903705     200            4053.1261     -22660.382     -18607.256      0.0046049851   0.0088246073 
     18200   410.07767      1.6551767      200            4009.3528     -22617.059     -18607.706      0.0046049851   0.0087819326 
     18300   411.04558      1.9605715      200            4018.8161     -22626.504     -18607.688      0.0046049851   0.0087372193 
     18400   406.71337      5.6468734      200            3976.4598     -22583.902     -18607.443      0.0046049851   0.0086917231 
     18500   409.59961      2.9813375      200            4004.6787     -22611.923     -18607.245      0.0046049851   0.0086466772 
     18600   413.0746      -0.16180309     200            4038.6539     -22646.125     -18607.471      0.0046049851   0.008601211  
     18700   417.27327     -1.1286173      200            4079.7046     -22687.404     -18607.699      0.0046049851   0.008554791  
     18800   414.28441      1.9540253      200            4050.4823     -22658.665     -18608.183      0.0046049851   0.0085090608 
     18900   418.39256      0.21014975     200            4090.6479     -22698.912     -18608.264      0.0046049851   0.0084717142 
     19000   418.28784     -0.73730177     200            4089.624      -22697.545     -18607.92       0.0046049851   0.0084502685 
     19100   414.57095      1.3433488      200            4053.2838     -22661.132     -18607.848      0.0046049851   0.0084391759 
     19200   416.94234      2.8766157      200            4076.469      -22684.726     -18608.257      0.0046049851   0.0084340541 
     19300   417.84907      3.5765853      200            4085.3342     -22693.835     -18608.501      0.0046049851   0.0084342826 
     19400   422.08659      0.32767996     200            4126.7647     -22735.181     -18608.416      0.0046049851   0.0084371356 
     19500   417.2598       1.0354985      200            4079.5729     -22687.525     -18607.952      0.0046049851   0.0084389407 
     19600   416.63205      0.87236967     200            4073.4352     -22680.651     -18607.216      0.0046049851   0.0084389698 
     19700   416.8361      -1.5647518      200            4075.4303     -22682.45      -18607.019      0.0046049851   0.0084374166 
     19800   410.70798     -1.3738224      200            4015.5153     -22622.62      -18607.105      0.0046049851   0.0084356103 
     19900   413.16767     -2.1934943      200            4039.5639     -22646.8       -18607.236      0.0046049851   0.0084350361 
     20000   411.02986      1.0230023      200            4018.6623     -22625.895     -18607.233      0.0046049851   0.008438099  
     20100   415.0625      -0.22987918     200            4058.0897     -22664.846     -18606.756      0.0046049851   0.0084437616 
     20200   412.13098      0.63774735     200            4029.4281     -22635.621     -18606.193      0.0046049851   0.0084483866 
     20300   411.80594     -2.0940023      200            4026.2502     -22631.867     -18605.617      0.0046049851   0.0084506051 
     20400   415.03663     -4.6318735      200            4057.8367     -22663.101     -18605.265      0.0046049851   0.008450751  
     20500   421.38603     -6.9660462      200            4119.9152     -22725.481     -18605.565      0.0046049851   0.0084527323 
     20600   419.00318     -5.6694222      200            4096.618      -22702.81      -18606.192      0.0046049851   0.0084634408 
     20700   419.68902     -1.6962003      200            4103.3235     -22709.863     -18606.539      0.0046049851   0.0084768505 
     20800   423.31755     -1.3493529      200            4138.7998     -22745.417     -18606.617      0.0046049851   0.008489387  
     20900   419.09713      0.37334733     200            4097.5365     -22704.074     -18606.538      0.0046049851   0.0085003124 
     21000   419.97244      1.1630832      200            4106.0945     -22712.004     -18605.91       0.0046049851   0.0085099232 
     21100   415.1322      -2.4336686      200            4058.7711     -22664.39      -18605.619      0.0046049851   0.0085190771 
     21200   411.87165     -2.5423987      200            4026.8926     -22632.757     -18605.864      0.0046049851   0.0085271131 
     21300   418.49271     -0.13605871     200            4091.6271     -22698.008     -18606.381      0.0046049851   0.0085331589 
     21400   418.9733       1.8580465      200            4096.3258     -22703.769     -18607.444      0.0046049851   0.0085369588 
     21500   416.80295      2.9184599      200            4075.1062     -22683.061     -18607.955      0.0046049851   0.0085385754 
     21600   419.68092      1.4418642      200            4103.2443     -22711.236     -18607.992      0.0046049851   0.0085378163 
     21700   420.42225      0.76057951     200            4110.4923     -22718.634     -18608.141      0.0046049851   0.008534438  
     21800   428.00306     -1.5863877      200            4184.6103     -22792.999     -18608.389      0.0046049851   0.0085287525 
     21900   422.8568       1.6881343      200            4134.2951     -22742.964     -18608.668      0.0046049851   0.0085202877 
     22000   419.879        1.1852313      200            4105.1809     -22713.647     -18608.466      0.0046049851   0.0085083766 
     22100   421.4715       0.68259515     200            4120.7509     -22729.265     -18608.514      0.0046049851   0.0084939404 
     22200   424.54754     -0.904924       200            4150.8255     -22759.421     -18608.596      0.0046049851   0.0084810796 
     22300   417.29681      1.0902325      200            4079.9346     -22688.861     -18608.926      0.0046049851   0.0084718873 
     22400   420.94756     -1.2483717      200            4115.6282     -22724.609     -18608.981      0.0046049851   0.0084706706 
     22500   419.60869     -3.6701103      200            4102.5381     -22711.437     -18608.899      0.0046049851   0.0084797107 
     22600   415.91692     -2.4352105      200            4066.4434     -22675.624     -18609.181      0.0046049851   0.0084903566 
     22700   415.60953      0.93230164     200            4063.4381     -22673.562     -18610.124      0.0046049851   0.0084989411 
     22800   419.12466     -0.27942912     200            4097.8057     -22708.824     -18611.018      0.0046049851   0.0085051248 
     22900   421.01236      0.17689344     200            4116.2619     -22727.687     -18611.425      0.0046049851   0.0085095276 
     23000   427.53265     -1.4684347      200            4180.011      -22791.74      -18611.729      0.0046049851   0.0085113025 
     23100   416.66269      2.3783471      200            4073.7349     -22686.017     -18612.282      0.0046049851   0.0085092351 
     23200   424.52896     -0.77559687     200            4150.6439     -22763.094     -18612.45       0.0046049851   0.0085030295 
     23300   416.76112      3.9606966      200            4074.6972     -22686.707     -18612.009      0.0046049851   0.0084923293 
     23400   418.31931      1.0343613      200            4089.9317     -22701.396     -18611.464      0.0046049851   0.0084756295 
     23500   413.2198      -1.2401929      200            4040.0736     -22651.333     -18611.26       0.0046049851   0.0084528419 
     23600   411.10629     -0.18268791     200            4019.4096     -22630.579     -18611.17       0.0046049851   0.0084268335 
     23700   423.47502     -2.704143       200            4140.3394     -22751.554     -18611.215      0.0046049851   0.0083977164 
     23800   420.63044      1.344753       200            4112.5278     -22724.426     -18611.898      0.0046049851   0.0083649581 
     23900   427.7756       3.2769445      200            4182.3864     -22794.952     -18612.566      0.0046049851   0.0083287791 
     24000   426.01633      3.4520618      200            4165.1859     -22777.994     -18612.808      0.0046049851   0.0082905772 
     24100   426.41746     -1.4231202      200            4169.1078     -22781.283     -18612.175      0.0046049851   0.0082517107 
     24200   427.091       -0.83680614     200            4175.693      -22787.694     -18612.001      0.0046049851   0.0082108503 
     24300   426.66262     -1.4199969      200            4171.5048     -22783.208     -18611.703      0.0046049851   0.0081664646 
     24400   428.06885     -3.677093       200            4185.2535     -22796.913     -18611.66       0.0046049851   0.0081184072 
     24500   424.85975      2.4060074      200            4153.8779     -22765.741     -18611.863      0.0046049851   0.0080671337 
     24600   422.79297      4.2475095      200            4133.6709     -22745.52      -18611.849      0.0046049851   0.008015277  
     24700   429.0939      -1.0657063      200            4195.2755     -22806.636     -18611.361      0.0046049851   0.0079692724 
     24800   420.59976      4.5205384      200            4112.2278     -22723.198     -18610.97       0.0046049851   0.0079306781 
     24900   421.317        3.7003289      200            4119.2403     -22730.329     -18611.089      0.0046049851   0.0079039277 
     25000   426.90534     -1.5663054      200            4173.8779     -22784.928     -18611.05       0.0046049851   0.0078866655 
     25100   418.7121       0.2657792      200            4093.772      -22704.713     -18610.941      0.0046049851   0.007873862  
     25200   423.52707     -0.77617177     200            4140.8483     -22751.36      -18610.512      0.0046049851   0.0078620979 
     25300   422.34816     -0.16459108     200            4129.3221     -22739.173     -18609.851      0.0046049851   0.007849756  
     25400   423.94058     -2.1473564      200            4144.8912     -22754.25      -18609.359      0.0046049851   0.0078389346 
     25500   422.22425     -0.83611436     200            4128.1105     -22737.587     -18609.476      0.0046049851   0.007833557  
     25600   423.79717      0.5733532      200            4143.4891     -22753.51      -18610.021      0.0046049851   0.0078381339 
     25700   419.96967      6.5047026      200            4106.0674     -22716.678     -18610.611      0.0046049851   0.0078574291 
     25800   426.49139      6.0632063      200            4169.8306     -22780.718     -18610.888      0.0046049851   0.007882765  
     25900   429.39386      4.8540485      200            4198.2082     -22809.095     -18610.886      0.0046049851   0.0079084622 
     26000   430.09637      3.5816744      200            4205.0767     -22815.894     -18610.818      0.0046049851   0.0079328426 
     26100   419.74279      5.7185268      200            4103.8492     -22714.4       -18610.551      0.0046049851   0.0079553224 
     26200   424.49051      2.6793115      200            4150.2679     -22760.511     -18610.243      0.0046049851   0.0079778413 
     26300   423.0892       3.8131698      200            4136.5672     -22746.796     -18610.229      0.0046049851   0.0080033649 
     26400   427.57783      1.0282296      200            4180.4528     -22790.517     -18610.064      0.0046049851   0.0080297535 
     26500   430.21779      1.0854825      200            4206.2639     -22815.967     -18609.704      0.0046049851   0.0080538297 
     26600   426.83583      3.5234223      200            4173.1982     -22782.372     -18609.173      0.0046049851   0.0080719819 
     26700   421.11249      4.9767535      200            4117.2408     -22725.905     -18608.665      0.0046049851   0.0080792746 
     26800   423.97506      0.62701727     200            4145.2283     -22753.139     -18607.91       0.0046049851   0.008081753  
     26900   425.50364     -1.3492175      200            4160.1734     -22768.052     -18607.878      0.0046049851   0.0080831965 
     27000   433.4706      -1.7748056      200            4238.0667     -22846.052     -18607.986      0.0046049851   0.0080827534 
     27100   427.87202      2.7115593      200            4183.3292     -22790.676     -18607.347      0.0046049851   0.0080790161 
     27200   426.91447      1.7288908      200            4173.9671     -22780.528     -18606.561      0.0046049851   0.0080700088 
     27300   426.32596     -1.1534443      200            4168.2132     -22774.189     -18605.976      0.0046049851   0.0080565296 
     27400   430.63163     -5.1773588      200            4210.31       -22816.238     -18605.928      0.0046049851   0.0080414041 
     27500   421.92014      0.80102461     200            4125.1373     -22730.984     -18605.847      0.0046049851   0.0080290883 
     27600   421.12419      0.8637802      200            4117.3552     -22723.035     -18605.68       0.0046049851   0.0080201744 
     27700   428.55751     -2.9401123      200            4190.0312     -22795.419     -18605.388      0.0046049851   0.0080107786 
     27800   420.03131      1.4193062      200            4106.67       -22711.666     -18604.996      0.0046049851   0.007999083  
     27900   423.53691     -2.0728964      200            4140.9445     -22745.708     -18604.764      0.0046049851   0.0079861592 
     28000   428.9635      -6.8079541      200            4194.0006     -22798.682     -18604.681      0.0046049851   0.0079727956 
     28100   423.91241     -3.5685452      200            4144.6157     -22749.463     -18604.847      0.0046049851   0.0079589388 
     28200   423.79658     -0.94503213     200            4143.4833     -22748.534     -18605.051      0.0046049851   0.0079447267 
     28300   428.75144     -0.44334077     200            4191.9273     -22797.839     -18605.912      0.0046049851   0.0079308716 
     28400   425.86829      4.0374448      200            4163.7385     -22770.209     -18606.47       0.0046049851   0.0079163742 
     28500   428.9463       2.6519837      200            4193.8325     -22801.064     -18607.232      0.0046049851   0.0079037913 
     28600   430.51961      3.8969776      200            4209.2147     -22816.801     -18607.587      0.0046049851   0.0078942219 
     28700   431.34654      6.6680881      200            4217.2997     -22824.62      -18607.32       0.0046049851   0.0078853896 
     28800   428.52732      6.0943991      200            4189.7361     -22796.912     -18607.176      0.0046049851   0.0078784508 
     28900   431.6939       2.3438884      200            4220.6959     -22827.765     -18607.069      0.0046049851   0.0078747043 
     29000   433.17472      3.0063795      200            4235.1739     -22843.099     -18607.925      0.0046049851   0.007871771  
     29100   436.25127      4.0198231      200            4265.2536     -22873.61      -18608.357      0.0046049851   0.0078700488 
     29200   427.08783      4.1686814      200            4175.662      -22784.029     -18608.367      0.0046049851   0.0078703154 
     29300   432.17064      0.03259407     200            4225.357      -22833.821     -18608.464      0.0046049851   0.0078700151 
     29400   430.32354      4.4674116      200            4207.2978     -22815.402     -18608.104      0.0046049851   0.007868447  
     29500   428.98319      5.2060732      200            4194.1931     -22802.042     -18607.849      0.0046049851   0.0078665579 
     29600   436.68241      2.0046057      200            4269.4688     -22877.33      -18607.861      0.0046049851   0.007865815  
     29700   430.48023      4.9912872      200            4208.8297     -22816.864     -18608.034      0.0046049851   0.0078664381 
     29800   432.41729      2.3336158      200            4227.7685     -22836.337     -18608.569      0.0046049851   0.007868291  
     29900   430.52609      4.4192458      200            4209.2781     -22818.405     -18609.127      0.0046049851   0.0078707871 
     30000   439.45653      1.3149562      200            4296.5915     -22906.168     -18609.576      0.0046049851   0.007874035  
     30100   432.08923      5.0498386      200            4224.561      -22834.162     -18609.601      0.0046049851   0.0078800011 
     30200   439.47814      2.8434752      200            4296.8028     -22906.296     -18609.493      0.0046049851   0.0078854868 
     30300   431.78566      2.8357161      200            4221.593      -22830.892     -18609.299      0.0046049851   0.0078856931 
     30400   430.05903      3.0377691      200            4204.7116     -22814.248     -18609.536      0.0046049851   0.0078817922 
     30500   426.28941      6.4735144      200            4167.8558     -22777.912     -18610.056      0.0046049851   0.0078756993 
     30600   429.33869      5.0193508      200            4197.6689     -22807.904     -18610.235      0.0046049851   0.0078696233 
     30700   427.50281      6.7614165      200            4179.7193     -22790.479     -18610.76       0.0046049851   0.0078643885 
     30800   428.48282      7.5943403      200            4189.301      -22800.163     -18610.862      0.0046049851   0.0078593137 
     30900   425.20446      8.8982549      200            4157.2482     -22768.159     -18610.91       0.0046049851   0.0078526384 
     31000   425.41919      5.7611822      200            4159.3477     -22769.834     -18610.487      0.0046049851   0.0078424429 
WARNING: Bond/angle/dihedral extent > half of periodic box length (src/domain.cpp:935)
Loop time of 350.234 on 1 procs for 30000 steps with 3281 atoms

Performance: 0.740 ns/day, 32.429 hours/ns, 85.657 timesteps/s, 281.041 katom-step/s
108.4% CPU use with 1 MPI tasks x 1 OpenMP threads

MPI task timing breakdown:
Section |  min time  |  avg time  |  max time  |%varavg| %total
---------------------------------------------------------------
Pair    | 247.66     | 247.66     | 247.66     |   0.0 | 70.71
Bond    | 0.91853    | 0.91853    | 0.91853    |   0.0 |  0.26
Kspace  | 97.849     | 97.849     | 97.849     |   0.0 | 27.94
Neigh   | 2.3571     | 2.3571     | 2.3571     |   0.0 |  0.67
Comm    | 0.042724   | 0.042724   | 0.042724   |   0.0 |  0.01
Output  | 0.53229    | 0.53229    | 0.53229    |   0.0 |  0.15
Modify  | 0.54039    | 0.54039    | 0.54039    |   0.0 |  0.15
Other   |            | 0.3298     |            |       |  0.09

Nlocal:           3281 ave        3281 max        3281 min
Histogram: 1 0 0 0 0 0 0 0 0 0
Nghost:              1 ave           1 max           1 min
Histogram: 1 0 0 0 0 0 0 0 0 0
Neighs:    1.15138e+06 ave 1.15138e+06 max 1.15138e+06 min
Histogram: 1 0 0 0 0 0 0 0 0 0

Total # of neighbors = 1151377
Ave neighs/atom = 350.92258
Ave special neighs/atom = 10.796099
Neighbor list builds = 206
Dangerous builds = 0
Total wall time: 0:07:17
