LAMMPS (7 Feb 2024 - Update 1)
OMP_NUM_THREADS environment is not set. Defaulting to 1 thread. (src/comm.cpp:98)
  using 1 OpenMP thread(s) per MPI task
units real
boundary p p p
atom_style full
read_data lmp.data
Reading data file ...
  orthogonal box = (-100 -100 -100) to (100 100 100)
  1 by 1 by 1 MPI processor grid
  reading atoms ...
  3281 atoms
  scanning bonds ...
  11 = max bonds/atom
  reading bonds ...
  3521 bonds
Finding 1-2 1-3 1-4 neighbors ...
  special bond factors lj:    0        0        0       
  special bond factors coul:  0        0        0       
    13 = max # of 1-2 neighbors
    81 = max # of 1-3 neighbors
   604 = max # of 1-4 neighbors
    41 = max # of special neighbors
  special bonds CPU = 0.006 seconds
  read_data CPU = 0.015 seconds

bond_style harmonic
angle_style charmm
dihedral_style charmm
improper_style harmonic

kspace_style pppm 1e-4
pair_style hybrid lj/cut/coul/long 10.0

# 1  C
# 2  Fe
# 3  H
# 4  N
# 5  O
# 6  S

# Pair coefficients (unchanged)
pair_coeff 3 3 lj/cut/coul/long 0.5 2.846
pair_coeff 5 5 lj/cut/coul/long 0.2  2.85
pair_coeff 4 4 lj/cut/coul/long 0.17 3.250
pair_coeff 1 1 lj/cut/coul/long 0.12 3.30
pair_coeff 6 6 lj/cut/coul/long 0.27 3.59
pair_coeff 2 2 lj/cut/coul/long 0.013 2.32
pair_modify mix arithmetic
neigh_modify delay 1 every 1 check yes one 2000
bond_coeff 1 0 0

# Create results folder
variable results string "simulation_results_6"
shell rmdir ${results}
shell rmdir simulation_results_6
WARNING: Shell command 'rmdir simulation_results_6' failed with error 'No such file or directory' (src/input.cpp:1296)
shell mkdir ${results}
shell mkdir simulation_results_6
shell cd ${results}
shell cd simulation_results_6

# Define ligand region and group
#region ligand_region block -0.5 0.5 41 43.5 -14.7 -12.9
group ligand_group id 3281
1 atoms in group ligand_group
set group ligand_group charge -0.5
Setting atom values ...
  1 settings made for charge

# Set Fe charge
set type 2 charge 15
Setting atom values ...
  1 settings made for charge

# Define group "others", to compute potential energy:
group others subtract all ligand_group
3280 atoms in group others

#potential energy
compute pe_ligand ligand_group group/group others kspace yes
#kinetic energy
compute ke_ligand ligand_group ke

# Output
dump 1 all custom 100 dmp.*.txt id type x y z mass
fix ave_ke all ave/time 100 1 100 c_ke_ligand file ke_data.txt
fix ave_pe all ave/time 100 1 100 c_pe_ligand file pe_data.txt

thermo_style custom step temp ke pe etotal c_ke_ligand c_pe_ligand
thermo 100

# Simulation
minimize 0.0 0.0 1000 10000
Switching to 'neigh_modify every 1 delay 0 check yes' setting during minimization
PPPM initialization ...
WARNING: System is not charge neutral, net charge = 14.5 (src/kspace.cpp:327)
  using 12-bit tables for long-range coulomb (src/kspace.cpp:342)
  G vector (1/distance) = 0.15415134
  grid = 32 32 32
  stencil order = 5
  estimated absolute RMS force accuracy = 0.03836531
  estimated relative force accuracy = 0.00011553599
  using double precision FFTW3
  3d grid and FFT values/proc = 50653 32768
Generated 15 of 15 mixed pair_coeff terms from arithmetic mixing rule
WARNING: Both groups in compute group/group have a net charge; the Kspace boundary correction to energy will be non-zero (src/compute_group_group.cpp:143)
Neighbor list info ...
  update: every = 1 steps, delay = 0 steps, check = yes
  max neighbors/atom: 2000, page size: 100000
  master list distance cutoff = 12
  ghost atom cutoff = 12
  binsize = 6, bins = 34 34 34
  2 neighbor lists, perpetual/occasional/extra = 1 1 0
  (1) pair lj/cut/coul/long, perpetual
      attributes: half, newton on
      pair build: half/bin/newton
      stencil: half/bin/3d
      bin: standard
  (2) compute group/group, occasional, copy from (1)
      attributes: half, newton on
      pair build: copy
      stencil: none
      bin: none
Per MPI rank memory allocation (min/avg/max) = 19.47 | 19.47 | 19.47 Mbytes
   Step          Temp          KinEng         PotEng         TotEng      c_ke_ligand    c_pe_ligand  
         0   0              0              26479749       26479749       0              1.2965106    
       100   0              0             -19289.185     -19289.185      0              1.1226512    
       200   0              0             -20269.54      -20269.54       0              1.090805     
       300   0              0             -20706.427     -20706.427      0              1.0742171    
       400   0              0             -21078.474     -21078.474      0              1.0590692    
       500   0              0             -21309.324     -21309.324      0              1.049097     
       600   0              0             -21520.358     -21520.358      0              1.0395385    
       700   0              0             -21706.447     -21706.447      0              1.0309393    
       800   0              0             -21859.022     -21859.022      0              1.0238911    
       900   0              0             -22005.35      -22005.35       0              1.0172134    
      1000   0              0             -22138.164     -22138.164      0              1.0113333    
Loop time of 82.3438 on 1 procs for 1000 steps with 3281 atoms

106.4% CPU use with 1 MPI tasks x 1 OpenMP threads

Minimization stats:
  Stopping criterion = max iterations
  Energy initial, next-to-last, final = 
      26479749.3787266   -22137.236997371  -22138.1636533235
  Force two-norm initial, final = 3.2101261e+08 58.122596
  Force max component initial, final = 1.5469702e+08 5.8759779
  Final line search alpha, max atom move = 0.00026652077 0.0015660702
  Iterations, force evaluations = 1000 5885

MPI task timing breakdown:
Section |  min time  |  avg time  |  max time  |%varavg| %total
---------------------------------------------------------------
Pair    | 68.278     | 68.278     | 68.278     |   0.0 | 82.92
Bond    | 0.1958     | 0.1958     | 0.1958     |   0.0 |  0.24
Kspace  | 13.476     | 13.476     | 13.476     |   0.0 | 16.36
Neigh   | 0.11166    | 0.11166    | 0.11166    |   0.0 |  0.14
Comm    | 0.0070559  | 0.0070559  | 0.0070559  |   0.0 |  0.01
Output  | 0.0483     | 0.0483     | 0.0483     |   0.0 |  0.06
Modify  | 0          | 0          | 0          |   0.0 |  0.00
Other   |            | 0.2275     |            |       |  0.28

Nlocal:           3281 ave        3281 max        3281 min
Histogram: 1 0 0 0 0 0 0 0 0 0
Nghost:              0 ave           0 max           0 min
Histogram: 1 0 0 0 0 0 0 0 0 0
Neighs:    1.00609e+06 ave 1.00609e+06 max 1.00609e+06 min
Histogram: 1 0 0 0 0 0 0 0 0 0

Total # of neighbors = 1006086
Ave neighs/atom = 306.64005
Ave special neighs/atom = 10.796099
Neighbor list builds = 10
Dangerous builds = 0
velocity all create 300.0 1234567 mom yes rot yes dist gaussian
fix 1 all nve
timestep 0.1
run 50000
PPPM initialization ...
  using 12-bit tables for long-range coulomb (src/kspace.cpp:342)
  G vector (1/distance) = 0.15415134
  grid = 32 32 32
  stencil order = 5
  estimated absolute RMS force accuracy = 0.03836531
  estimated relative force accuracy = 0.00011553599
  using double precision FFTW3
  3d grid and FFT values/proc = 50653 32768
Generated 15 of 15 mixed pair_coeff terms from arithmetic mixing rule
WARNING: Both groups in compute group/group have a net charge; the Kspace boundary correction to energy will be non-zero (src/compute_group_group.cpp:143)
Per MPI rank memory allocation (min/avg/max) = 25.98 | 25.98 | 25.98 Mbytes
   Step          Temp          KinEng         PotEng         TotEng      c_ke_ligand    c_pe_ligand  
      1000   300            2933.1171     -22138.164     -19205.047      0.49186177     1.0113333    
      1100   193.9025       1895.7958     -21100.882     -19205.086      0.48117667     1.0135242    
      1200   204.06584      1995.1633     -21200.122     -19204.959      0.47068706     1.0154633    
      1300   192.48151      1881.9027     -21086.794     -19204.891      0.46039251     1.0171724    
      1400   178.64957      1746.667      -20951.674     -19205.007      0.45029267     1.0186737    
      1500   175.14074      1712.361      -20917.528     -19205.167      0.44038726     1.0199748    
      1600   188.1181       1839.2414     -21044.839     -19205.597      0.43067602     1.0210994    
      1700   199.40614      1949.6052     -21156.247     -19206.642      0.4211588      1.022069     
      1800   214.2698       2094.928      -21302.896     -19207.968      0.41183545     1.0228651    
      1900   225.87847      2208.4267     -21417.346     -19208.92       0.40270577     1.0234572    
      2000   234.61458      2293.8401     -21503.697     -19209.857      0.39376958     1.0238149    
      2100   245.03126      2395.6846     -21606.591     -19210.906      0.38502666     1.0239308    
      2200   248.64774      2431.0432     -21642.876     -19211.833      0.37647688     1.023849     
      2300   258.34252      2525.8295     -21738.336     -19212.507      0.36812021     1.0236049    
      2400   264.68074      2587.7987     -21800.799     -19213          0.35995667     1.0231714    
      2500   270.17902      2641.5557     -21855.425     -19213.869      0.35198635     1.022533     
      2600   274.4274       2683.0923     -21897.941     -19214.849      0.34420936     1.0216901    
      2700   275.25736      2691.2069     -21907.235     -19216.028      0.33662579     1.0206787    
      2800   283.64448      2773.2082     -21990.228     -19217.02       0.32923571     1.0194851    
      2900   286.81748      2804.2308     -22021.861     -19217.63       0.32203912     1.0180995    
      3000   290.72134      2842.3991     -22060.846     -19218.447      0.31503603     1.0165569    
      3100   299.29066      2926.1818     -22145.741     -19219.559      0.30822655     1.0149314    
      3200   306.07423      2992.5052     -22213.169     -19220.664      0.30161083     1.0132754    
      3300   312.26285      3053.0117     -22275.13      -19222.119      0.29518904     1.0115401    
      3400   319.27097      3121.5305     -22344.826     -19223.296      0.28896129     1.0097117    
      3500   327.15899      3198.6521     -22422.782     -19224.13       0.28292772     1.0078558    
      3600   328.32218      3210.0246     -22435.224     -19225.199      0.27708851     1.0061186    
      3700   331.38318      3239.9522     -22466.141     -19226.189      0.27144396     1.0048092    
      3800   335.59847      3281.1653     -22508.757     -19227.592      0.26599457     1.0042376    
      3900   336.39769      3288.9793     -22517.933     -19228.954      0.26074092     1.0043642    
      4000   344.60419      3369.2148     -22599.584     -19230.369      0.25568362     1.0053785    
      4100   351.03238      3432.0636     -22663.383     -19231.319      0.25082323     1.0074537    
      4200   358.77489      3507.7625     -22740.065     -19232.303      0.24616        1.010637     
      4300   358.50277      3505.102      -22738.43      -19233.328      0.24169434     1.0154609    
      4400   360.65942      3526.1877     -22760.599     -19234.412      0.23742708     1.0224158    
      4500   363.37055      3552.6946     -22787.842     -19235.148      0.23335905     1.0322159    
      4600   367.34607      3591.5634     -22827.086     -19235.523      0.22949101     1.0454976    
      4700   367.7973       3595.9751     -22831.851     -19235.876      0.22582345     1.0612742    
      4800   370.39115      3621.3354     -22856.611     -19235.275      0.22235594     1.0780563    
      4900   372.67221      3643.6374     -22878.264     -19234.626      0.21908664     1.0949195    
      5000   377.04153      3686.3566     -22920.284     -19233.928      0.21601387     1.1121757    
      5100   373.05802      3647.4095     -22880.795     -19233.386      0.21313577     1.1290226    
      5200   378.42122      3699.8458     -22931.989     -19232.143      0.21044974     1.1453328    
      5300   372.17658      3638.7916     -22869.603     -19230.811      0.20795382     1.1609579    
      5400   376.72611      3683.2727     -22912.744     -19229.471      0.2056456      1.1760365    
      5500   382.67974      3741.4816     -22969.869     -19228.387      0.20352322     1.1907799    
      5600   383.7475       3751.9212     -22979.198     -19227.277      0.20158431     1.204948     
      5700   384.26053      3756.9371     -22982.951     -19226.014      0.19982704     1.2189337    
      5800   385.58956      3769.9311     -22995.557     -19225.626      0.19824945     1.2328402    
      5900   391.19654      3824.7509     -23049.535     -19224.784      0.19684984     1.2468847    
      6000   390.17345      3814.748      -23039.175     -19224.427      0.19562665     1.2610115    
      6100   389.08274      3804.0841     -23028.348     -19224.264      0.19457817     1.275253     
      6200   384.09893      3755.3571     -22979.632     -19224.275      0.19370332     1.2894371    
      6300   383.75067      3751.9522     -22976.502     -19224.55       0.19300109     1.3035307    
      6400   384.14937      3755.8503     -22981.091     -19225.241      0.19247044     1.3172649    
      6500   385.02642      3764.4253     -22990.521     -19226.096      0.19211044     1.3301321    
      6600   386.27662      3776.6485     -23003.771     -19227.123      0.19192038     1.3417808    
      6700   390.97253      3822.5607     -23051.017     -19228.456      0.19189964     1.3524297    
      6800   385.39879      3768.0659     -22998.29      -19230.224      0.19204766     1.3623601    
      6900   389.16401      3804.8787     -23037.778     -19232.899      0.192364       1.3717133    
      7000   389.06368      3803.8977     -23040.187     -19236.289      0.19284827     1.3807251    
      7100   385.67506      3770.767      -23009.551     -19238.784      0.19350016     1.3895824    
      7200   386.87195      3782.4691     -23022.419     -19239.95       0.19431956     1.3983146    
      7300   380.6883       3722.0112     -22962.573     -19240.562      0.19530632     1.4068787    
      7400   377.13467      3687.2671     -22928.228     -19240.961      0.1964602      1.4153434    
      7500   379.65793      3711.9372     -22953.578     -19241.641      0.19778093     1.42393      
      7600   375.13173      3667.6843     -22910.009     -19242.325      0.19926795     1.432874     
      7700   380.3431       3718.6362     -22961.532     -19242.896      0.20092067     1.4419264    
      7800   381.9218       3734.0712     -22976.91      -19242.839      0.20273868     1.4510302    
      7900   386.0847       3774.7721     -23018.118     -19243.346      0.20472166     1.4601071    
      8000   386.82235      3781.9841     -23025.456     -19243.472      0.20686928     1.4690266    
      8100   387.74884      3791.0425     -23034.262     -19243.219      0.20918117     1.4780378    
      8200   388.68039      3800.1503     -23043.294     -19243.144      0.2116569      1.4870451    
      8300   379.2694       3708.1385     -22950.689     -19242.551      0.21429604     1.495959     
      8400   383.54202      3749.9122     -22991.4       -19241.488      0.21709813     1.5054259    
      8500   378.91451      3704.6688     -22945.406     -19240.737      0.22006269     1.5150548    
      8600   383.13559      3745.9385     -22985.924     -19239.985      0.22318942     1.5241105    
      8700   378.77953      3703.3491     -22942.196     -19238.847      0.22647816     1.5329174    
      8800   381.25649      3727.5664     -22964.674     -19237.108      0.22992878     1.5415846    
      8900   380.52442      3720.4089     -22955.507     -19235.098      0.23354169     1.5488641    
      9000   384.66564      3760.8978     -22994.148     -19233.251      0.23731796     1.5545437    
      9100   390.57344      3818.6588     -23050.125     -19231.466      0.24125872     1.5593119    
      9200   388.65643      3799.9161     -23029.809     -19229.893      0.2453647      1.56324      
      9300   395.22296      3864.1174     -23092.854     -19228.737      0.24963643     1.5664318    
      9400   392.89146      3841.3221     -23069.156     -19227.833      0.25407437     1.568837     
      9500   389.01574      3803.4291     -23030.576     -19227.147      0.25867922     1.5701586    
      9600   392.90649      3841.4691     -23068.146     -19226.677      0.26345189     1.5703512    
      9700   395.04875      3862.4141     -23088.154     -19225.74       0.26839345     1.5694833    
      9800   393.15098      3843.8595     -23068.769     -19224.91       0.27350495     1.5676493    
      9900   392.90511      3841.4556     -23065.865     -19224.409      0.27878754     1.5647591    
     10000   392.80114      3840.4392     -23064.69      -19224.251      0.2842427      1.5605803    
     10100   394.43598      3856.423      -23080.742     -19224.319      0.28987231     1.5549111    
     10200   393.04515      3842.8248     -23067.837     -19225.012      0.29567844     1.5478014    
     10300   398.38137      3894.9974     -23121.191     -19226.193      0.30166308     1.5395144    
     10400   398.68647      3897.9803     -23125.434     -19227.454      0.30782801     1.5301759    
     10500   400.63566      3917.0377     -23145.726     -19228.689      0.31417495     1.5198101    
     10600   403.12783      3941.4037     -23171.078     -19229.674      0.32070554     1.5086       
     10700   397.38133      3885.2199     -23115.606     -19230.386      0.32742135     1.4966325    
     10800   401.4789       3925.282      -23156.64      -19231.358      0.33432406     1.4838131    
     10900   398.59241      3897.0607     -23129.847     -19232.787      0.34141554     1.4699627    
     11000   405.36551      3963.2817     -23197.568     -19234.286      0.34869804     1.4547003    
     11100   400.51726      3915.8801     -23151.869     -19235.989      0.35617418     1.4379406    
     11200   407.40001      3983.1731     -23221.503     -19238.33       0.36384661     1.4197632    
     11300   412.04606      4028.5978     -23269.142     -19240.544      0.37171817     1.4001666    
     11400   404.25741      3952.4478     -23195.456     -19243.008      0.37979173     1.3792405    
     11500   410.02708      4008.8581     -23254.271     -19245.413      0.38807004     1.3573567    
     11600   413.40898      4041.9231     -23288.077     -19246.154      0.39655505     1.3353997    
     11700   415.22378      4059.6666     -23306.585     -19246.918      0.4052485      1.3129458    
     11800   418.96479      4096.2426     -23344.101     -19247.858      0.41415283     1.289662     
     11900   415.91531      4066.4277     -23314.562     -19248.134      0.42327081     1.2654079    
     12000   410.49426      4013.4257     -23261.834     -19248.408      0.4326048      1.2408207    
     12100   413.97233      4047.431      -23296.211     -19248.78       0.44215712     1.2156376    
     12200   415.00269      4057.5049     -23306.492     -19248.987      0.45193083     1.1898505    
     12300   416.57315      4072.8595     -23322.696     -19249.837      0.46192908     1.1637598    
     12400   425.2692       4157.8812     -23409.336     -19251.455      0.47215499     1.1372536    
     12500   423.00229      4135.7175     -23389.127     -19253.409      0.4826122      1.1101362    
     12600   418.72614      4093.9093     -23350.289     -19256.379      0.49330441     1.0825166    
     12700   417.07771      4077.7925     -23337.507     -19259.715      0.50423485     1.0543189    
     12800   418.54694      4092.1573     -23355.519     -19263.361      0.51540717     1.0247987    
     12900   415.26683      4060.0875     -23326.325     -19266.237      0.52682595     0.99397293   
     13000   422.69321      4132.6956     -23401.035     -19268.339      0.53849513     0.96236326   
     13100   421.35755      4119.6367     -23389.681     -19270.044      0.55041829     0.93002068   
     13200   418.58278      4092.5077     -23363.994     -19271.487      0.56259909     0.89692036   
     13300   420.46791      4110.9387     -23384.055     -19273.116      0.57504136     0.86299667   
     13400   419.36959      4100.2004     -23375.438     -19275.238      0.58774917     0.82813595   
     13500   419.97104      4106.0808     -23382.995     -19276.915      0.60072668     0.79256102   
     13600   415.82526      4065.5472     -23343.504     -19277.956      0.6139777      0.75650594   
     13700   416.7402       4074.4927     -23352.491     -19277.999      0.62750589     0.72008948   
     13800   418.98656      4096.4554     -23373.892     -19277.436      0.64131407     0.68403993   
     13900   424.46711      4150.0391     -23426.102     -19276.063      0.65540365     0.64869268   
     14000   422.31189      4128.9674     -23402.985     -19274.018      0.66977615     0.61378945   
     14100   423.69982      4142.5373     -23415.216     -19272.678      0.68443323     0.57981189   
     14200   428.20689      4186.6031     -23458.063     -19271.46       0.69937431     0.54830448   
     14300   422.17039      4127.584      -23397.708     -19270.124      0.71459602     0.52037077   
     14400   421.32254      4119.2944     -23387.266     -19267.972      0.73009374     0.49533356   
     14500   420.86602      4114.8311     -23380.31      -19265.479      0.74586519     0.47172994   
     14600   416.80643      4075.1402     -23338.198     -19263.058      0.76191007     0.44903285   
     14700   424.05471      4146.007      -23406.739     -19260.731      0.77822879     0.4268893    
     14800   421.04041      4116.536      -23375.143     -19258.607      0.79482227     0.40519742   
     14900   415.58572      4063.2052     -23319.902     -19256.697      0.81169018     0.38487361   
     15000   414.72633      4054.8029     -23309.092     -19254.289      0.82883203     0.36496946   
     15100   415.61179      4063.4602     -23315.492     -19252.032      0.84624829     0.34555833   
     15200   411.41047      4022.3836     -23272.767     -19250.384      0.86393972     0.3261921    
     15300   417.02484      4077.2756     -23325.882     -19248.606      0.88190867     0.30559267   
     15400   413.13332      4039.228      -23285.959     -19246.731      0.90015989     0.28320682   
     15500   411.85775      4026.7567     -23271.12      -19244.363      0.91869735     0.26001598   
     15600   412.16569      4029.7675     -23271.651     -19241.883      0.93752501     0.23496486   
     15700   414.08425      4048.5253     -23288.512     -19239.987      0.95664991     0.20739887   
     15800   414.74961      4055.0306     -23292.935     -19237.905      0.97607687     0.17916886   
     15900   416.88696      4075.9275     -23311.851     -19235.924      0.99581019     0.14940289   
     16000   413.93086      4047.0256     -23280.988     -19233.962      1.0158538      0.11950317   
     16100   420.65752      4112.7925     -23345.31      -19232.517      1.0362096      0.08984687   
     16200   413.19039      4039.786      -23271.099     -19231.313      1.05688        0.059488936  
     16300   415.51508      4062.5146     -23292.454     -19229.94       1.0778688      0.028716953  
     16400   420.18759      4108.198      -23336.375     -19228.177      1.0991773     -0.00072074536
     16500   420.17492      4108.0741     -23335.041     -19226.967      1.1208033     -0.028038033  
     16600   416.33394      4070.5207     -23296.562     -19226.041      1.1427446     -0.053952589  
     16700   418.24657      4089.2206     -23314.412     -19225.192      1.1649991     -0.077699987  
     16800   419.60011      4102.4542     -23327.032     -19224.578      1.1875623     -0.098613222  
     16900   423.64277      4141.9795     -23365.945     -19223.966      1.2104288     -0.11672164   
     17000   421.91952      4125.1312     -23348.147     -19223.016      1.2335935     -0.1326813    
     17100   422.41263      4129.9524     -23352.442     -19222.489      1.2570524     -0.14638115   
     17200   425.04931      4155.7313     -23377.645     -19221.913      1.280802      -0.15902062   
     17300   425.15621      4156.7764     -23377.526     -19220.749      1.3048433     -0.17256679   
     17400   421.80651      4124.0263     -23343.271     -19219.245      1.3291798     -0.1867396    
     17500   430.96349      4213.5546     -23432.038     -19218.483      1.3538138     -0.20121633   
     17600   425.40207      4159.1803     -23377.147     -19217.967      1.3787484     -0.21674793   
     17700   428.18656      4186.4044     -23404.055     -19217.651      1.4039898     -0.2342224    
     17800   424.86785      4153.9572     -23370.959     -19217.002      1.4295468     -0.25403119   
     17900   425.88811      4163.9323     -23381.185     -19217.253      1.4554297     -0.27702193   
     18000   429.968        4203.8216     -23421.464     -19217.643      1.4816497     -0.30216422   
     18100   433.39302      4237.3082     -23455.754     -19218.445      1.5082124     -0.32755331   
     18200   427.57655      4180.4403     -23399.908     -19219.468      1.5351213     -0.35370919   
     18300   430.51986      4209.2172     -23429.444     -19220.227      1.5623803     -0.37992849   
     18400   430.72457      4211.2187     -23431.727     -19220.508      1.589989      -0.40490524   
     18500   424.3983       4149.3664     -23370.211     -19220.845      1.6179462     -0.42904717   
     18600   431.7695       4221.435      -23442.726     -19221.291      1.6462521     -0.45256615   
     18700   430.90025      4212.9363     -23434.18      -19221.244      1.6749058     -0.47476478   
     18800   432.26757      4226.3047     -23447.834     -19221.53       1.7039055     -0.49594504   
     18900   426.408        4169.0153     -23390.61      -19221.595      1.7332502     -0.51615841   
     19000   426.3506       4168.4541     -23390.103     -19221.649      1.7629381     -0.53533249   
     19100   429.93391      4203.4883     -23425.971     -19222.483      1.7929689     -0.55416741   
     19200   427.06443      4175.4333     -23399.016     -19223.582      1.8233459     -0.5742656    
     19300   430.07302      4204.8484     -23430.084     -19225.236      1.8540759     -0.59526134   
     19400   426.47663      4169.6863     -23396.389     -19226.703      1.8851631     -0.61724135   
     19500   430.34644      4207.5217     -23435.02      -19227.499      1.9166143     -0.64114371   
     19600   431.25913      4216.4451     -23445.022     -19228.577      1.9484381     -0.66697606   
     19700   434.16563      4244.8621     -23474.763     -19229.901      1.9806445     -0.69523501   
     19800   434.26507      4245.8343     -23476.51      -19230.676      2.013245      -0.72598146   
     19900   433.48792      4238.2361     -23470.63      -19232.394      2.0462496     -0.75837026   
     20000   427.04273      4175.2211     -23409.295     -19234.074      2.0796658     -0.79166262   
     20100   435.40001      4256.9307     -23492.722     -19235.792      2.1134984     -0.82496678   
     20200   425.77039      4162.7813     -23399.509     -19236.728      2.1477488     -0.85770162   
     20300   425.26106      4157.8017     -23395.733     -19237.931      2.1824205     -0.89154083   
     20400   427.03179      4175.1141     -23414.439     -19239.325      2.2175217     -0.92660051   
     20500   421.24191      4118.5062     -23358.596     -19240.09       2.2530577     -0.96151903   
     20600   427.1679       4176.4449     -23417.222     -19240.777      2.2890294     -0.99568945   
     20700   430.11386      4205.2477     -23447.043     -19241.795      2.3254379     -1.0294776    
     20800   426.52228      4170.1326     -23412.907     -19242.775      2.3622847     -1.0628458    
     20900   425.83487      4163.4118     -23407.097     -19243.685      2.399573      -1.0967091    
     21000   423.37232      4139.3352     -23384.055     -19244.72       2.4373091     -1.1317065    
     21100   421.25244      4118.6091     -23364.195     -19245.586      2.4755026     -1.1688624    
     21200   418.96523      4096.247      -23342.841     -19246.594      2.5141671     -1.208359     
     21300   419.37036      4100.2079     -23348.137     -19247.929      2.5533131     -1.2486351    
     21400   424.40761      4149.4574     -23398.987     -19249.529      2.5929447     -1.2884794    
     21500   423.4213       4139.8141     -23390.522     -19250.708      2.6330644     -1.3281481    
     21600   422.43317      4130.1531     -23381.604     -19251.451      2.673676      -1.3677779    
     21700   421.13281      4117.4395     -23369.557     -19252.118      2.7147827     -1.4068421    
     21800   417.56716      4082.578      -23335.551     -19252.973      2.7563855     -1.4450997    
     21900   422.34285      4129.2701     -23383.899     -19254.629      2.7984868     -1.4834166    
     22000   419.78384      4104.2505     -23360.987     -19256.736      2.8410903     -1.521078     
     22100   417.42132      4081.152      -23339.694     -19258.542      2.8841929     -1.5569022    
     22200   423.13273      4136.9928     -23395.892     -19258.899      2.9277927     -1.5925483    
     22300   427.74641      4182.101      -23440.852     -19258.751      2.9718951     -1.6289811    
     22400   421.6834       4122.8226     -23381.994     -19259.172      3.016507      -1.6660082    
     22500   422.43508      4130.1718     -23390.42      -19260.248      3.0616348     -1.7035827    
     22600   425.35212      4158.6919     -23420.065     -19261.373      3.1072859     -1.7423269    
     22700   429.3665       4197.9407     -23460.191     -19262.25       3.1534713     -1.7831822    
     22800   429.52521      4199.4924     -23462.149     -19262.657      3.2002056     -1.8264739    
     22900   427.83196      4182.9375     -23445.882     -19262.945      3.2475041     -1.8721894    
     23000   427.39854      4178.6999     -23442.05      -19263.351      3.2953829     -1.9201115    
     23100   426.48752      4169.7928     -23433.323     -19263.531      3.3438553     -1.969313     
     23200   424.51941      4150.5505     -23414.951     -19264.401      3.3929322     -2.0196391    
     23300   429.45962      4198.8511     -23464.177     -19265.326      3.4426249     -2.0713483    
     23400   432.50024      4228.5795     -23494.675     -19266.095      3.4929456     -2.1245289    
     23500   434.16921      4244.8971     -23512.363     -19267.466      3.5439069     -2.1790795    
     23600   434.39508      4247.1055     -23515.37      -19268.264      3.5955221     -2.2351252    
     23700   430.6864       4210.8455     -23479.928     -19269.083      3.6478046     -2.292513     
     23800   430.19216      4206.0133     -23476.099     -19270.086      3.7007697     -2.3519044    
     23900   427.40374      4178.7507     -23450.117     -19271.366      3.7544342     -2.4129837    
     24000   426.30117      4167.9708     -23440.29      -19272.319      3.8088096     -2.4740866    
     24100   433.27188      4236.1239     -23509.083     -19272.959      3.8639005     -2.5348085    
     24200   434.97846      4252.8091     -23526.59      -19273.781      3.9197136     -2.5959803    
     24300   432.1863       4225.5101     -23499.786     -19274.276      3.9762602     -2.658479     
     24400   433.10157      4234.4587     -23509.108     -19274.649      4.033553      -2.7214613    
     24500   430.2675       4206.7498     -23481.745     -19274.995      4.0915961     -2.7830662    
     24600   431.22554      4216.1167     -23491.396     -19275.28       4.150388      -2.8433075    
     24700   429.66569      4200.866      -23476.525     -19275.659      4.2099322     -2.9039022    
     24800   426.40933      4169.0283     -23445.349     -19276.321      4.2702397     -2.9655451    
     24900   428.90742      4193.4523     -23470.457     -19277.005      4.3313205     -3.0271978    
     25000   429.54086      4199.6455     -23477.38      -19277.735      4.3931801     -3.0887176    
     25100   429.46844      4198.9374     -23477.019     -19278.082      4.455827      -3.1509024    
     25200   429.52222      4199.4632     -23477.392     -19277.929      4.5192738     -3.2144639    
     25300   429.60074      4200.231      -23478.084     -19277.853      4.5835369     -3.2798451    
     25400   427.23         4177.0521     -23455.153     -19278.101      4.6486335     -3.3467733    
     25500   433.88513      4242.1196     -23520.399     -19278.279      4.7145799     -3.4152744    
     25600   424.88693      4154.1437     -23432.916     -19278.773      4.7813947     -3.48604      
     25700   430.17059      4205.8023     -23484.557     -19278.755      4.8490996     -3.5591261    
     25800   423.96707      4145.1501     -23423.121     -19277.971      4.9177154     -3.6340915    
     25900   436.32389      4265.9635     -23543.059     -19277.096      4.987263      -3.7110965    
     26000   426.29401      4167.9009     -23444.214     -19276.313      5.0577655     -3.7905486    
     26100   436.33002      4266.0235     -23541.702     -19275.678      5.1292495     -3.8730575    
     26200   436.78719      4270.4933     -23545.643     -19275.15       5.2017437     -3.9583866    
     26300   428.18561      4186.3951     -23460.921     -19274.526      5.27527       -4.0444183    
     26400   429.76037      4201.7916     -23475.808     -19274.016      5.3498404     -4.1304883    
     26500   426.35215      4168.4692     -23441.722     -19273.252      5.4254684     -4.2170268    
     26600   431.85933      4222.3133     -23494.804     -19272.491      5.5021692     -4.3043003    
     26700   421.30236      4119.0972     -23390.321     -19271.224      5.5799607     -4.3930832    
     26800   431.19526      4215.8206     -23485.638     -19269.818      5.6588654     -4.4837104    
     26900   427.45691      4179.2706     -23447.991     -19268.721      5.7389051     -4.5757443    
     27000   433.45657      4237.9296     -23505.447     -19267.517      5.8201017     -4.669369     
     27100   431.17608      4215.6331     -23481.782     -19266.149      5.9024799     -4.7649883    
     27200   432.67425      4230.2807     -23495.054     -19264.773      5.9860663     -4.8626044    
     27300   438.20966      4284.4009     -23548.566     -19264.165      6.0708864     -4.9618013    
     27400   425.51815      4160.3152     -23424.405     -19264.089      6.1569623     -5.0620156    
     27500   431.59135      4219.6932     -23483.462     -19263.769      6.2443146     -5.1632253    
     27600   431.55056      4219.2945     -23482.406     -19263.111      6.3329662     -5.2655142    
     27700   434.58684      4248.9803     -23510.931     -19261.951      6.4229351     -5.3673378    
     27800   441.89422      4320.425      -23581.5       -19261.075      6.5142315     -5.4683349    
     27900   427.9312       4183.9077     -23444.818     -19260.91       6.6068672     -5.5689311    
     28000   429.94282      4203.5754     -23464.868     -19261.292      6.7008545     -5.6687386    
     28100   426.15601      4166.5516     -23428.55      -19261.998      6.7962        -5.7669762    
     28200   438.95996      4291.7365     -23554.051     -19262.315      6.8929088     -5.8641232    
     28300   431.8587       4222.3072     -23485.094     -19262.787      6.9909887     -5.960164     
     28400   437.52987      4277.7545     -23541.598     -19263.843      7.0904449     -6.0547813    
     28500   433.49902      4238.3446     -23503.48      -19265.136      7.1912859     -6.1492473    
     28600   434.61898      4249.2945     -23515.802     -19266.507      7.2935335     -6.2454956    
     28700   439.85414      4300.4789     -23567.988     -19267.509      7.3972146     -6.3424547    
     28800   431.72695      4221.0189     -23489.386     -19268.367      7.5023457     -6.4392373    
     28900   436.54809      4268.1555     -23537.093     -19268.937      7.6089474     -6.5378724    
     29000   433.3437       4236.8261     -23505.676     -19268.849      7.7170658     -6.6421214    
     29100   428.52726      4189.7355     -23458.245     -19268.51       7.8267544     -6.7497333    
     29200   431.55474      4219.3353     -23487.88      -19268.545      7.9380558     -6.8612148    
     29300   434.95238      4252.5542     -23521.132     -19268.578      8.0510295     -6.9786165    
     29400   441.5329       4316.8923     -23585.804     -19268.912      8.1657327     -7.0991928    
     29500   432.61347      4229.6865     -23498.85      -19269.163      8.2822037     -7.2208884    
     29600   440.39131      4305.7309     -23574.758     -19269.027      8.4004723     -7.3441103    
     29700   437.69691      4279.3876     -23547.996     -19268.608      8.5205801     -7.4699384    
     29800   439.7725       4299.6808     -23567.812     -19268.132      8.6425702     -7.5978366    
     29900   436.65667      4269.2171     -23536.374     -19267.157      8.7664799     -7.7267598    
     30000   439.17431      4293.8323     -23559.999     -19266.166      8.8923378     -7.8559407    
     30100   431.97398      4223.4342     -23488.982     -19265.547      9.0201714     -7.9853781    
     30200   435.95183      4262.3259     -23527.104     -19264.778      9.1499949     -8.1116331    
     30300   438.8535       4290.6957     -23555.669     -19264.974      9.2817893     -8.2319198    
     30400   440.28426      4304.6842     -23570.149     -19265.465      9.4155338     -8.3483547    
     30500   438.42817      4286.5372     -23552.932     -19266.395      9.5512251     -8.4619793    
     30600   441.12475      4312.9019     -23580.284     -19267.383      9.6888645     -8.5732367    
     30700   437.09866      4273.5385     -23542.064     -19268.526      9.828458      -8.6833418    
     30800   445.75461      4358.1682     -23627.55      -19269.382      9.9700347     -8.7962624    
     30900   441.82259      4319.7246     -23589.728     -19270.003      10.113657     -8.9150298    
     31000   437.85109      4280.8951     -23552.12      -19271.225      10.259417     -9.0433494    
     31100   435.18897      4254.8673     -23527.017     -19272.15       10.40744      -9.1829133    
     31200   438.77503      4289.9285     -23563.413     -19273.484      10.557846     -9.3309604    
     31300   439.44801      4296.5082     -23570.755     -19274.247      10.710738     -9.4866261    
     31400   440.98064      4311.4928     -23586.584     -19275.091      10.866222     -9.6493142    
     31500   441.52753      4316.8398     -23593.091     -19276.251      11.024383     -9.8157677    
     31600   451.61839      4415.4987     -23692.135     -19276.636      11.185292     -9.9854244    
     31700   444.36282      4344.5606     -23621.691     -19277.13       11.349018     -10.158461    
     31800   446.70647      4367.4746     -23645.196     -19277.721      11.51563      -10.333502    
     31900   442.92439      4330.497      -23608.988     -19278.491      11.685177     -10.5085      
     32000   438.5421       4287.6511     -23566.899     -19279.248      11.857703     -10.684199    
     32100   445.5178       4355.8529     -23635.656     -19279.803      12.033254     -10.859827    
     32200   438.88618      4291.0152     -23570.892     -19279.876      12.21187      -11.035756    
     32300   447.94588      4379.5924     -23659.402     -19279.809      12.393615     -11.215164    
     32400   447.35333      4373.799      -23653.795     -19279.996      12.578558     -11.39507     
     32500   441.8691       4320.1794     -23601.091     -19280.911      12.766734     -11.573109    
     32600   441.05432      4312.2132     -23593.658     -19281.445      12.958172     -11.750324    
     32700   444.03419      4341.3476     -23622.963     -19281.615      13.152932     -11.931325    
     32800   442.48694      4326.2201     -23607.562     -19281.342      13.351118     -12.116826    
     32900   439.53468      4297.3556     -23578.515     -19281.159      13.552811     -12.303847    
     33000   448.3646       4383.6863     -23664.736     -19281.05       13.758077     -12.492351    
     33100   443.99222      4340.9372     -23621.809     -19280.872      13.966997     -12.685353    
     33200   442.30593      4324.4503     -23604.707     -19280.256      14.179716     -12.887728    
     33300   441.66577      4318.1914     -23597.585     -19279.394      14.396364     -13.093308    
     33400   436.86236      4271.2282     -23549.637     -19278.408      14.61703      -13.301059    
     33500   434.5286       4248.4109     -23526.255     -19277.844      14.841804     -13.511147    
     33600   435.13967      4254.3854     -23531.467     -19277.082      15.070802     -13.728053    
     33700   435.27053      4255.6648     -23532.389     -19276.724      15.304165     -13.948076    
     33800   439.18495      4293.9363     -23570.854     -19276.918      15.541972     -14.16757     
     33900   440.17749      4303.6404     -23580.743     -19277.103      15.784295     -14.388225    
     34000   434.96043      4252.6329     -23528.791     -19276.159      16.031258     -14.615922    
     34100   432.75812      4231.1008     -23505.945     -19274.845      16.283011     -14.847307    
     34200   433.56206      4238.961      -23512.991     -19274.03       16.539666     -15.081607    
     34300   433.54088      4238.7539     -23511.844     -19273.09       16.801388     -15.326413    
     34400   439.47267      4296.7493     -23569.424     -19272.675      17.068381     -15.577362    
     34500   432.11911      4224.8531     -23498.167     -19273.314      17.340792     -15.832277    
     34600   440.10866      4302.9674     -23576.504     -19273.537      17.61875      -16.088261    
     34700   431.47441      4218.5499     -23492.274     -19273.724      17.902378     -16.349834    
     34800   432.0312       4223.9937     -23497.633     -19273.639      18.19189      -16.621142    
     34900   428.10698      4185.6264     -23459.445     -19273.818      18.487517     -16.901408    
     35000   431.00279      4213.9388     -23488.237     -19274.298      18.789481     -17.189306    
     35100   427.60989      4180.7662     -23455.784     -19275.017      19.098015     -17.487708    
     35200   435.78968      4260.7405     -23536.47      -19275.729      19.413422     -17.799415    
     35300   432.60486      4229.6024     -23505.983     -19276.38       19.735978     -18.118073    
     35400   439.54248      4297.4319     -23574.381     -19276.949      20.0659       -18.442698    
     35500   428.59197      4190.3681     -23467.544     -19277.176      20.403433     -18.775817    
     35600   437.3199       4275.7016     -23553.482     -19277.781      20.748878     -19.121223    
     35700   429.33491      4197.6319     -23476.542     -19278.91       21.102582     -19.478013    
     35800   435.2113       4255.0857     -23535.286     -19280.2        21.464847     -19.841142    
     35900   439.29823      4295.0438     -23576.688     -19281.644      21.835935     -20.21105     
     36000   450.04066      4400.0732     -23683.136     -19283.063      22.216142     -20.588184    
     36100   444.48593      4345.7643     -23630.212     -19284.448      22.605763     -20.97331     
     36200   452.78692      4426.9235     -23712.969     -19286.046      23.005143     -21.368196    
     36300   444.66267      4347.4922     -23634.864     -19287.372      23.414632     -21.770797    
     36400   443.83286      4339.3792     -23627.579     -19288.2        23.834568     -22.180568    
     36500   447.74326      4377.6113     -23667.246     -19289.634      24.265306     -22.598927    
     36600   444.41855      4345.1055     -23636.712     -19291.607      24.707246     -23.028896    
     36700   443.72521      4338.3267     -23631.942     -19293.615      25.160856     -23.472292    
     36800   447.8511       4378.6657     -23674.284     -19295.619      25.626646     -23.930069    
     36900   443.77244      4338.7884     -23636.716     -19297.928      26.105147     -24.402866    
     37000   447.75985      4377.7735     -23677.332     -19299.558      26.596921     -24.89109     
     37100   447.24028      4372.6937     -23673.885     -19301.191      27.102547     -25.392801    
     37200   450.2247       4401.8725     -23704.837     -19302.965      27.622586     -25.907618    
     37300   445.64368      4357.0836     -23660.861     -19303.778      28.157681     -26.439648    
     37400   439.58247      4297.8228     -23602.694     -19304.871      28.708558     -26.990265    
     37500   445.31135      4353.8345     -23659.78      -19305.946      29.275974     -27.559259    
     37600   448.95557      4389.4642     -23696.382     -19306.918      29.860715     -28.146472    
     37700   445.86937      4359.2902     -23667.924     -19308.633      30.463588     -28.750904    
     37800   440.76872      4309.4209     -23619.749     -19310.328      31.085415     -29.372464    
     37900   453.55465      4434.4297     -23746.076     -19311.647      31.727046     -30.01051     
     38000   443.76925      4338.7572     -23651.303     -19312.546      32.389366     -30.667145    
     38100   454.13979      4440.1506     -23752.631     -19312.481      33.073436     -31.349378    
     38200   440.83354      4310.0546     -23622.426     -19312.372      33.78042      -32.0537      
     38300   441.05315      4312.2018     -23624.632     -19312.43       34.511434     -32.778302    
     38400   443.79197      4338.9793     -23651.772     -19312.793      35.267663     -33.525979    
     38500   433.0094       4233.5576     -23546.765     -19313.208      36.050474     -34.301767    
     38600   445.7037       4357.6704     -23671.243     -19313.573      36.861397     -35.101912    
     38700   438.16692      4283.9829     -23597.486     -19313.503      37.701816     -35.922711    
     38800   440.77806      4309.5122     -23623.107     -19313.595      38.57322      -36.767634    
     38900   437.5163       4277.6218     -23590.924     -19313.302      39.477428     -37.651154    
     39000   441.20944      4313.7298     -23626.687     -19312.957      40.416633     -38.572174    
     39100   439.2638       4294.7072     -23607.009     -19312.302      41.392943     -39.524095    
     39200   445.6647       4357.2891     -23669.195     -19311.906      42.408558     -40.510455    
     39300   444.04301      4341.4338     -23652.35      -19310.917      43.466032     -41.541604    
     39400   436.5091       4267.7744     -23577.793     -19310.018      44.568309     -42.619074    
     39500   442.33169      4324.7022     -23633.911     -19309.209      45.718457     -43.74451     
     39600   439.65503      4298.5322     -23606.637     -19308.104      46.919902     -44.926717    
     39700   442.17925      4323.2118     -23629.632     -19306.421      48.176697     -46.17936     
     39800   435.96022      4262.4079     -23566.965     -19304.557      49.493346     -47.499584    
     39900   440.45386      4306.3425     -23609.099     -19302.757      50.874634     -48.891057    
     40000   438.88135      4290.9679     -23591.863     -19300.895      52.325913     -50.362224    
     40100   443.95979      4340.6201     -23639.668     -19299.048      53.853123     -51.923199    
     40200   437.78558      4280.2546     -23577.937     -19297.683      55.462877     -53.577336    
     40300   435.23739      4255.3408     -23551.713     -19296.373      57.162813     -55.335769    
     40400   440.37004      4305.5229     -23600.296     -19294.773      58.961517     -57.209473    
     40500   433.93874      4242.6438     -23535.975     -19293.331      60.868653     -59.2093      
     40600   437.91888      4281.5578     -23573.33      -19291.772      62.895823     -61.349456    
     40700   448.84967      4388.4287     -23678.202     -19289.774      65.05634      -63.643192    
     40800   446.95749      4369.9288     -23657.188     -19287.259      67.366699     -66.117164    
     40900   451.8607       4417.8678     -23702.389     -19284.521      69.84571      -68.793793    
     41000   444.20576      4343.025      -23624.882     -19281.857      72.519082     -71.705426    
     41100   440.81987      4309.921      -23588.907     -19278.986      75.418238     -74.870583    
     41200   434.39794      4247.1334     -23523.231     -19276.098      78.586093     -78.334458    
     41300   441.19972      4313.6348     -23586.666     -19273.031      82.09031      -82.176588    
     41400   438.81497      4290.319      -23560.003     -19269.684      86.037812     -86.49261     
     41500   447.99842      4380.106      -23646.239     -19266.133      90.525366     -91.368265    
     41600   448.54763      4385.4757     -23647.826     -19262.35       94.456014     -95.854601    
     41700   441.39668      4315.5605     -23574.323     -19258.763      81.197118     -87.35771     
     41800   445.15157      4352.2723     -23608.426     -19256.153      58.298513     -96.668952    
     41900   431.09697      4214.8596     -23468.063     -19253.204      38.368568     -88.064619    
     42000   440.85327      4310.2476     -23561.297     -19251.05       2.1261081     -92.95864     
     42100   441.29993      4314.6145     -23564.033     -19249.419      3.2386875     -108.93584    
     42200   445.19935      4352.7394     -23601.28      -19248.541      2.4453864     -107.1491     
     42300   442.88453      4330.1073     -23577.739     -19247.632      2.0859866     -108.45449    
     42400   446.32305      4363.7259     -23610.24      -19246.514      1.6861434     -108.4798     
     42500   442.61563      4327.4783     -23573.371     -19245.893      1.4126942     -108.29215    
     42600   437.41815      4276.6622     -23521.557     -19244.895      1.2704545     -108.07732    
     42700   432.81116      4231.6193     -23475.244     -19243.625      1.2447213     -108.07638    
     42800   434.23509      4245.5412     -23488.634     -19243.093      1.3429751     -108.31615    
     42900   438.54835      4287.7122     -23530.015     -19242.302      1.5982114     -108.68308    
     43000   441.69505      4318.4776     -23560.281     -19241.803      1.9973168     -109.22956    
     43100   446.41126      4364.5883     -23605.769     -19241.18       2.5544344     -109.95744    
     43200   442.85642      4329.8325     -23570.193     -19240.361      3.3124849     -110.90535    
     43300   446.35295      4364.0182     -23603.271     -19239.252      4.3073951     -112.16332    
     43400   444.65788      4347.4455     -23585.549     -19238.103      5.5616137     -113.73249    
     43500   435.26929      4255.6526     -23492.396     -19236.743      7.0876179     -115.50664    
     43600   445.07902      4351.5629     -23587.548     -19235.985      8.8560465     -117.45515    
     43700   434.58479      4248.9602     -23484.755     -19235.794      10.532098     -119.07812    
     43800   439.31178      4295.1763     -23531.849     -19236.672      11.278916     -119.73014    
     43900   440.62107      4307.9773     -23546.273     -19238.296      11.437554     -121.17229    
     44000   443.07823      4332.0011     -23571.567     -19239.566      12.541989     -124.59096    
     44100   433.36902      4237.0736     -23477.807     -19240.733      15.060723     -128.05034    
     44200   443.14894      4332.6925     -23574.363     -19241.671      18.105951     -130.18098    
     44300   440.69966      4308.7457     -23550.97      -19242.225      20.282016     -133.07652    
     44400   443.31477      4334.3138     -23577.904     -19243.59       20.840487     -136.84513    
     44500   439.99914      4301.8966     -23547.094     -19245.198      23.333568     -141.13884    
     44600   439.11331      4293.2358     -23539.253     -19246.017      24.115471     -142.92001    
     44700   438.71851      4289.3759     -23535.093     -19245.717      23.620121     -149.02545    
     44800   440.00198      4301.9244     -23546.581     -19244.656      25.858682     -153.34054    
     44900   443.92457      4340.2758     -23583.092     -19242.816      28.156302     -159.09788    
     45000   443.86533      4339.6966     -23580.246     -19240.549      31.856468     -164.14708    
     45100   438.48083      4287.052      -23525.317     -19238.265      34.306838     -167.01354    
     45200   444.53618      4346.2555     -23581.845     -19235.59       26.094331     -165.62947    
     45300   440.91021      4310.8042     -23542.259     -19231.455      18.157305     -173.72722    
     45400   439.56599      4297.6617     -23524.452     -19226.791      13.096135     -174.35242    
     45500   442.09733      4322.4108     -23543.341     -19220.931      8.058928      -183.49699    
     45600   438.73326      4289.5201     -23504.175     -19214.655      6.772955      -189.1034     
     45700   437.00668      4272.6392     -23481.091     -19208.452      7.3658114     -192.55619    
     45800   440.40242      4305.8396     -23508.422     -19202.582      7.9559198     -197.38892    
     45900   445.51635      4355.8387     -23553.048     -19197.209      8.399432      -198.17743    
     46000   443.10278      4332.2411     -23523.782     -19191.541      9.7756917     -199.2347     
     46100   447.73552      4377.5357     -23562.789     -19185.254      11.84241      -203.09952    
     46200   436.73019      4269.936      -23448.66      -19178.724      12.98802      -207.46111    
     46300   450.1443       4401.0865     -23581.002     -19179.916      15.240494     -220.43353    
     46400   444.1112       4342.1005     -23516.625     -19174.524      16.456724     -224.50185    
     46500   452.83327      4427.3767     -23597.314     -19169.937      15.013508     -228.97238    
     46600   449.2764       4392.601      -23557.602     -19165.001      16.495592     -238.03615    
     46700   448.87622      4388.6884     -23547.613     -19158.925      18.858887     -248.27156    
     46800   442.04133      4321.8633     -23475.191     -19153.328      16.256805     -254.21141    
     46900   448.32011      4383.2513     -23531.784     -19148.533      14.176813     -268.05715    
     47000   440.33928      4305.2222     -23448.754     -19143.532      11.184515     -283.67783    
     47100   442.98212      4331.0614     -23469.569     -19138.508      5.5961528     -299.07054    
     47200   451.27722      4412.1631     -23546.916     -19134.753      8.17034       -322.00088    
     47300   448.80527      4387.9947     -23520.374     -19132.379      14.162612     -337.74783    
     47400   446.33863      4363.8782     -23494.676     -19130.797      24.370231     -361.40805    
     47500   456.90025      4467.1398     -23597.811     -19130.671      23.338541     -380.69628    
     47600   450.14087      4401.0529     -23533.611     -19132.558      27.026036     -417.37775    
     47700   454.71347      4445.7595     -23581.665     -19135.905      33.740721     -464.05389    
     47800   462.34519      4520.3753     -23662.221     -19141.846      51.986444     -530.32758    
     47900   470.73757      4602.428      -23756.204     -19153.776      47.215888     -638.9597     
     48000   497.56323      4864.704      -24040.926     -19176.222      68.427522     -870.63468    
     48100   552.09729      5397.8867     -24610.31      -19212.423      739.7365      -1455.0226    
     48200   486.20392      4753.6434     -23969.025     -19215.381      116.00625     -866.95854    
     48300   487.33575      4764.7094     -24002.189     -19237.48       2.8359452     -854.06383    
     48400   544.50613      5323.6675     -24597.296     -19273.629      281.83806     -1399.5447    
     48500   499.86515      4887.21       -24171.015     -19283.805      224.179       -997.18392    
     48600   487.88712      4770.1002     -24063.658     -19293.558      8.0415639     -832.36251    
     48700   506.25133      4949.6481     -24259.7       -19310.052      111.7506      -1079.2548    
     48800   521.84832      5102.1408     -24419.425     -19317.284      384.89849     -1212.2214    
     48900   480.9649       4702.4213     -24015.441     -19313.02       27.637763     -839.89912    
     49000   481.72939      4709.8957     -24024.658     -19314.762      48.713918     -926.78999    
     49100   523.46768      5117.9733     -24435.1       -19317.126      377.35472     -1279.4264    
     49200   479.75983      4690.6391     -23995.993     -19305.354      58.724463     -889.9616     
     49300   479.38842      4687.0079     -23984.616     -19297.608      23.3314       -856.2751     
     49400   527.47317      5157.1353     -24444.153     -19287.018      426.31688     -1374.0818    
     49500   490.61092      4796.7309     -24069.592     -19272.861      109.38628     -1006.6336    
     49600   466.43496      4560.3612     -23821.083     -19260.722      9.2831945     -834.27082    
     49700   497.75367      4866.566      -24113.983     -19247.417      230.29436     -1063.2419    
     49800   511.14226      4997.4669     -24230.227     -19232.76       229.9753      -1255.3294    
     49900   472.55413      4620.1887     -23844.326     -19224.137      1.8358556     -848.62291    
     50000   481.53515      4707.9966     -23926.269     -19218.273      131.37375     -920.97646    
     50100   482.17685      4714.2705     -23926.941     -19212.67       37.406089     -968.49585    
     50200   479.95508      4692.5482     -23908.948     -19216.4        12.571185     -906.06781    
     50300   466.2603       4558.6535     -23781.66      -19223.006      66.998961     -853.13201    
     50400   514.66461      5031.9052     -24259.378     -19227.473      556.40977     -1310.5051    
     50500   487.15435      4762.9358     -24005.117     -19242.181      71.906469     -1035.999     
     50600   459.3695       4491.2818     -23751.895     -19260.613      27.706118     -835.78783    
     50700   482.72361      4719.6162     -23990.518     -19270.902      297.36608     -1038.2048    
     50800   509.91523      4985.4703     -24266.223     -19280.753      242.21744     -1301.1225    
     50900   460.83772      4505.6367     -23807.755     -19302.118      19.158636     -849.85427    
     51000   469.14713      4586.8782     -23899.058     -19312.18       180.40396     -936.20445    
WARNING: Bond/angle/dihedral extent > half of periodic box length (src/domain.cpp:935)
Loop time of 526.526 on 1 procs for 50000 steps with 3281 atoms

Performance: 0.820 ns/day, 29.251 hours/ns, 94.962 timesteps/s, 311.570 katom-step/s
106.5% CPU use with 1 MPI tasks x 1 OpenMP threads

MPI task timing breakdown:
Section |  min time  |  avg time  |  max time  |%varavg| %total
---------------------------------------------------------------
Pair    | 409.04     | 409.04     | 409.04     |   0.0 | 77.69
Bond    | 1.3272     | 1.3272     | 1.3272     |   0.0 |  0.25
Kspace  | 106.48     | 106.48     | 106.48     |   0.0 | 20.22
Neigh   | 4.2201     | 4.2201     | 4.2201     |   0.0 |  0.80
Comm    | 0.084413   | 0.084413   | 0.084413   |   0.0 |  0.02
Output  | 2.3174     | 2.3174     | 2.3174     |   0.0 |  0.44
Modify  | 2.5091     | 2.5091     | 2.5091     |   0.0 |  0.48
Other   |            | 0.5506     |            |       |  0.10

Nlocal:           3281 ave        3281 max        3281 min
Histogram: 1 0 0 0 0 0 0 0 0 0
Nghost:             14 ave          14 max          14 min
Histogram: 1 0 0 0 0 0 0 0 0 0
Neighs:     1.0975e+06 ave  1.0975e+06 max  1.0975e+06 min
Histogram: 1 0 0 0 0 0 0 0 0 0

Total # of neighbors = 1097499
Ave neighs/atom = 334.50137
Ave special neighs/atom = 10.796099
Neighbor list builds = 359
Dangerous builds = 0
Total wall time: 0:10:08
