LAMMPS (7 Feb 2024 - Update 1)
OMP_NUM_THREADS environment is not set. Defaulting to 1 thread. (src/comm.cpp:98)
  using 1 OpenMP thread(s) per MPI task
units real
boundary p p p
atom_style full
read_data lmp.data
Reading data file ...
  orthogonal box = (-100 -100 -100) to (100 100 100)
  1 by 1 by 1 MPI processor grid
  reading atoms ...
  3281 atoms
  scanning bonds ...
  11 = max bonds/atom
  reading bonds ...
  3521 bonds
Finding 1-2 1-3 1-4 neighbors ...
  special bond factors lj:    0        0        0       
  special bond factors coul:  0        0        0       
    13 = max # of 1-2 neighbors
    81 = max # of 1-3 neighbors
   604 = max # of 1-4 neighbors
    41 = max # of special neighbors
  special bonds CPU = 0.009 seconds
  read_data CPU = 0.018 seconds

bond_style harmonic
angle_style charmm
dihedral_style charmm
improper_style harmonic

kspace_style pppm 1e-4
pair_style hybrid lj/cut/coul/long 10.0

# Pair coefficients (unchanged)
pair_coeff 3 3 lj/cut/coul/long 0.2 2.846
pair_coeff 5 5 lj/cut/coul/long 0.2  2.85
pair_coeff 4 4 lj/cut/coul/long 0.17 3.250
pair_coeff 1 1 lj/cut/coul/long 0.12 3.30
pair_coeff 6 6 lj/cut/coul/long 0.27 3.59
pair_coeff 2 2 lj/cut/coul/long 0.013 2.32
pair_modify mix arithmetic
neigh_modify delay 1 every 1 check yes one 2000
bond_coeff 1 0 0

# Create results folder
variable results string "simulation_results"
shell rmdir ${results}
shell rmdir simulation_results
shell mkdir ${results}
shell mkdir simulation_results
shell cd ${results}
shell cd simulation_results

# Define ligand region and group
region ligand_region block 48.5 50.5 -43.5 -41 12.9 14.7
group ligand_group region ligand_region
1 atoms in group ligand_group
set group ligand_group charge -0.5
Setting atom values ...
  1 settings made for charge

# Set Fe charge
set type 2 charge 5  # Warning: Extremely high charge (verify if intentional)
Setting atom values ...
  1 settings made for charge

# Define groups for Fe and charged O
group Fe_Atoms type 2
1 atoms in group Fe_Atoms
#group O_ligand type 5 region ligand_region  # Critical: Only 1 O in this region

# Verify groups contain exactly 1 atom each
variable Fe_count equal count(Fe_Atoms)
variable O_count equal count(ligand_group)
print "Fe atoms: ${Fe_count}, O in ligand: ${O_count}"
Fe atoms: 1, O in ligand: 1

# Compute coordinates using global averages (works for single-atom groups)
compute Fe_x Fe_Atoms property/atom xs
compute Fe_y Fe_Atoms property/atom yu
compute Fe_z Fe_Atoms property/atom zu
compute O_x ligand_group property/atom xu
compute O_y ligand_group property/atom yu
compute O_z ligand_group property/atom zu

compute Fe_avg all reduce ave c_Fe_x c_Fe_y c_Fe_z
compute O_avg all reduce ave c_O_x c_O_y c_O_z

# Calculate distance
#variable dx equal c_O_x-c_Fe_x
variable dx equal c_O_avg[1]-c_Fe_avg[1]
variable dy equal c_O_avg[2]-c_Fe_avg[2]
variable dz equal c_O_avg[3]-c_Fe_avg[3]
variable distance equal v_dx#sqrt(v_dx^2+v_dy^2+v_dz^2)

# Output
dump 1 all custom 100 dmp.*.txt id type x y z mass
thermo_style custom step temp press lx ke pe etotal density v_distance
thermo 100

# Simulation
minimize 0.0 0.0 1000 10000
Switching to 'neigh_modify every 1 delay 0 check yes' setting during minimization
PPPM initialization ...
WARNING: System is not charge neutral, net charge = 4.5 (src/kspace.cpp:327)
  using 12-bit tables for long-range coulomb (src/kspace.cpp:342)
  G vector (1/distance) = 0.17549664
  grid = 40 40 40
  stencil order = 5
  estimated absolute RMS force accuracy = 0.0021284123
  estimated relative force accuracy = 6.4096503e-06
  using double precision FFTW3
  3d grid and FFT values/proc = 91125 64000
Generated 15 of 15 mixed pair_coeff terms from arithmetic mixing rule
Neighbor list info ...
  update: every = 1 steps, delay = 0 steps, check = yes
  max neighbors/atom: 2000, page size: 100000
  master list distance cutoff = 12
  ghost atom cutoff = 12
  binsize = 6, bins = 34 34 34
  1 neighbor lists, perpetual/occasional/extra = 1 0 0
  (1) pair lj/cut/coul/long, perpetual
      attributes: half, newton on
      pair build: half/bin/newton
      stencil: half/bin/3d
      bin: standard
Per MPI rank memory allocation (min/avg/max) = 23.66 | 23.66 | 23.66 Mbytes
   Step          Temp          Press            Lx           KinEng         PotEng         TotEng        Density       v_distance  
         0   0              383626.85      200            0              11171359       11171359       0.0046049851   0.014756469  
       100   0             -53.976052      200            0             -11156.828     -11156.828      0.0046049851   0.014518765  
       200   0             -48.07222       200            0             -11748.318     -11748.318      0.0046049851   0.014459094  
       300   0             -45.522942      200            0             -11987.292     -11987.292      0.0046049851   0.014431372  
       400   0             -43.790344      200            0             -12158.559     -12158.559      0.0046049851   0.014410158  
       500   0             -42.297148      200            0             -12301.469     -12301.469      0.0046049851   0.014391394  
       600   0             -40.929808      200            0             -12422.761     -12422.761      0.0046049851   0.014374362  
       700   0             -39.79466       200            0             -12519.936     -12519.936      0.0046049851   0.014359919  
       800   0             -38.735165      200            0             -12609.722     -12609.722      0.0046049851   0.014345966  
       900   0             -37.777436      200            0             -12689.395     -12689.395      0.0046049851   0.014332988  
      1000   0             -36.817729      200            0             -12768.725     -12768.725      0.0046049851   0.014319454  
Loop time of 83.8065 on 1 procs for 1000 steps with 3281 atoms

110.9% CPU use with 1 MPI tasks x 1 OpenMP threads

Minimization stats:
  Stopping criterion = max iterations
  Energy initial, next-to-last, final = 
      11171358.7047121  -12768.4717596052  -12768.7248843238
  Force two-norm initial, final = 1.2875613e+08 30.174178
  Force max component initial, final = 61878944 2.9072375
  Final line search alpha, max atom move = 0.000268756 0.00078133752
  Iterations, force evaluations = 1000 5733

MPI task timing breakdown:
Section |  min time  |  avg time  |  max time  |%varavg| %total
---------------------------------------------------------------
Pair    | 63.43      | 63.43      | 63.43      |   0.0 | 75.69
Bond    | 0.16847    | 0.16847    | 0.16847    |   0.0 |  0.20
Kspace  | 19.869     | 19.869     | 19.869     |   0.0 | 23.71
Neigh   | 0.1046     | 0.1046     | 0.1046     |   0.0 |  0.12
Comm    | 0.0068407  | 0.0068407  | 0.0068407  |   0.0 |  0.01
Output  | 0.018866   | 0.018866   | 0.018866   |   0.0 |  0.02
Modify  | 0          | 0          | 0          |   0.0 |  0.00
Other   |            | 0.2084     |            |       |  0.25

Nlocal:           3281 ave        3281 max        3281 min
Histogram: 1 0 0 0 0 0 0 0 0 0
Nghost:              0 ave           0 max           0 min
Histogram: 1 0 0 0 0 0 0 0 0 0
Neighs:    1.03023e+06 ave 1.03023e+06 max 1.03023e+06 min
Histogram: 1 0 0 0 0 0 0 0 0 0

Total # of neighbors = 1030230
Ave neighs/atom = 313.99878
Ave special neighs/atom = 10.796099
Neighbor list builds = 10
Dangerous builds = 0
velocity all create 300.0 1234567 mom yes rot yes dist gaussian
fix 1 all nve
timestep 0.1
run 30000
PPPM initialization ...
  using 12-bit tables for long-range coulomb (src/kspace.cpp:342)
  G vector (1/distance) = 0.17549664
  grid = 40 40 40
  stencil order = 5
  estimated absolute RMS force accuracy = 0.0021284123
  estimated relative force accuracy = 6.4096503e-06
  using double precision FFTW3
  3d grid and FFT values/proc = 91125 64000
Generated 15 of 15 mixed pair_coeff terms from arithmetic mixing rule
Per MPI rank memory allocation (min/avg/max) = 25.45 | 25.45 | 25.45 Mbytes
   Step          Temp          Press            Lx           KinEng         PotEng         TotEng        Density       v_distance  
      1000   300           -20.057797      200            2933.1171     -12768.725     -9835.6078      0.0046049851   0.014319454  
      1100   215.89364      13.288719      200            2110.8044     -11946.585     -9835.7808      0.0046049851   0.014314091  
      1200   189.08996      18.346909      200            1848.7433     -11684.29      -9835.5466      0.0046049851   0.014308304  
      1300   189.51281      6.425187       200            1852.8775     -11687.758     -9834.8802      0.0046049851   0.014302094  
      1400   171.92729      4.4515747      200            1680.943      -11515.03      -9834.0866      0.0046049851   0.014295459  
      1500   157.94481      5.3533841      200            1544.2354     -11377.717     -9833.4811      0.0046049851   0.0142884    
      1600   155.09484      4.1508378      200            1516.3711     -11349.463     -9833.0915      0.0046049851   0.014280915  
      1700   157.54323      1.4981312      200            1540.3092     -11373.189     -9832.8801      0.0046049851   0.014273005  
      1800   165.07538     -2.9328209      200            1613.9514     -11446.748     -9832.7966      0.0046049851   0.014264669  
      1900   171.9511      -6.3674132      200            1681.1757     -11513.905     -9832.7295      0.0046049851   0.014255906  
      2000   175.66326     -7.5383736      200            1717.4697     -11550.393     -9832.9237      0.0046049851   0.014246716  
      2100   178.77617     -8.6141153      200            1747.9048     -11581.19      -9833.2849      0.0046049851   0.014237097  
      2200   186.42119     -12.089354      200            1822.6506     -11656.209     -9833.5586      0.0046049851   0.014227047  
      2300   188.28818     -13.424193      200            1840.9043     -11674.703     -9833.7987      0.0046049851   0.014216564  
      2400   186.86804     -13.398804      200            1827.0194     -11660.976     -9833.9567      0.0046049851   0.01420565   
      2500   187.36142     -14.61337       200            1831.8432     -11665.646     -9833.8023      0.0046049851   0.014194303  
      2600   188.81586     -16.28792       200            1846.0634     -11679.668     -9833.6044      0.0046049851   0.014182523  
      2700   188.3849      -17.275579      200            1841.8499     -11675.343     -9833.4933      0.0046049851   0.014170307  
      2800   187.28333     -17.693048      200            1831.0798     -11664.609     -9833.5295      0.0046049851   0.014157655  
      2900   187.97415     -17.961762      200            1837.8339     -11671.467     -9833.633       0.0046049851   0.014144563  
      3000   190.59089     -17.952067      200            1863.418      -11697.428     -9834.0102      0.0046049851   0.014131032  
      3100   190.53203     -16.978961      200            1862.8425     -11697.449     -9834.6069      0.0046049851   0.014117061  
      3200   190.18504     -16.255709      200            1859.4499     -11694.55      -9835.1         0.0046049851   0.014102649  
      3300   193.20596     -17.075566      200            1888.9857     -11724.446     -9835.46        0.0046049851   0.014087796  
      3400   196.18145     -16.781978      200            1918.0773     -11753.907     -9835.8297      0.0046049851   0.0140725    
      3500   198.07354     -15.45475       200            1936.5762     -11772.942     -9836.3657      0.0046049851   0.01405676   
      3600   199.39547     -13.472898      200            1949.5009     -11786.296     -9836.7951      0.0046049851   0.014040573  
      3700   198.6136      -10.875599      200            1941.8565     -11779.089     -9837.233       0.0046049851   0.014023936  
      3800   201.65963     -10.312921      200            1971.6377     -11809.341     -9837.7035      0.0046049851   0.01400685   
      3900   203.74147     -9.5619999      200            1991.9919     -11830.36      -9838.3679      0.0046049851   0.013989314  
      4000   206.27096     -9.4353319      200            2016.7229     -11855.604     -9838.8814      0.0046049851   0.013971327  
      4100   207.34244     -8.912218       200            2027.1988     -11866.58      -9839.3816      0.0046049851   0.013952886  
      4200   206.23479     -7.1976332      200            2016.3693     -11856.231     -9839.8619      0.0046049851   0.013933989  
      4300   207.85601     -6.016648       200            2032.2201     -11872.632     -9840.4121      0.0046049851   0.013914634  
      4400   209.45845     -4.9585419      200            2047.8872     -11888.852     -9840.9652      0.0046049851   0.013894819  
      4500   211.47718     -4.2305725      200            2067.6245     -11909.056     -9841.4316      0.0046049851   0.013874544  
      4600   214.30508     -3.7187766      200            2095.273      -11937.244     -9841.9711      0.0046049851   0.013853806  
      4700   217.22202     -3.1565846      200            2123.7921     -11966.31      -9842.5182      0.0046049851   0.013832603  
      4800   220.50051     -2.9405656      200            2155.846      -11998.873     -9843.0267      0.0046049851   0.013810934  
      4900   225.16627     -3.2174297      200            2201.4635     -12045.201     -9843.7377      0.0046049851   0.013788797  
      5000   227.18496     -1.7350078      200            2221.2003     -12065.55      -9844.3497      0.0046049851   0.013766189  
      5100   228.92467      0.20899424     200            2238.2096     -12083.341     -9845.1316      0.0046049851   0.013743106  
      5200   227.89257      2.4988971      200            2228.1186     -12074.141     -9846.0219      0.0046049851   0.013719546  
      5300   230.21332      3.0285814      200            2250.8087     -12097.593     -9846.7845      0.0046049851   0.013695506  
      5400   229.37686      4.2108479      200            2242.6306     -12089.976     -9847.3458      0.0046049851   0.013670988  
      5500   232.51112      3.4391746      200            2273.2745     -12121.068     -9847.7935      0.0046049851   0.013645991  
      5600   234.27748      2.7025074      200            2290.5443     -12138.72      -9848.1762      0.0046049851   0.013620513  
      5700   231.9253       4.2977021      200            2267.5468     -12116.09      -9848.543       0.0046049851   0.013594547  
      5800   231.33306      5.7733784      200            2261.7565     -12110.535     -9848.7781      0.0046049851   0.013568088  
      5900   234.32467      6.2186155      200            2291.0056     -12140.386     -9849.3799      0.0046049851   0.013541136  
      6000   234.79915      7.9244126      200            2295.6447     -12145.624     -9849.9798      0.0046049851   0.01351369   
      6100   234.44293      10.412948      200            2292.1618     -12142.696     -9850.5346      0.0046049851   0.013485747  
      6200   242.1672       9.0482294      200            2367.6826     -12218.667     -9850.9846      0.0046049851   0.013457299  
      6300   240.50792      10.898954      200            2351.4597     -12202.782     -9851.322       0.0046049851   0.013428346  
      6400   243.31546      9.938379       200            2378.9091     -12230.443     -9851.5341      0.0046049851   0.013398884  
      6500   243.50835      9.3918545      200            2380.795      -12232.49      -9851.6953      0.0046049851   0.013368912  
      6600   244.16173      9.1379238      200            2387.1831     -12239.009     -9851.8254      0.0046049851   0.013338425  
      6700   244.6596       9.9353173      200            2392.0509     -12244.04      -9851.9895      0.0046049851   0.013307422  
      6800   243.00122      11.725235      200            2375.8368     -12228.009     -9852.1726      0.0046049851   0.013275901  
      6900   242.43986      12.487571      200            2370.3483     -12223.098     -9852.7501      0.0046049851   0.013243851  
      7000   246.76201      11.006667      200            2412.6062     -12265.661     -9853.0544      0.0046049851   0.013211269  
      7100   250.16076      10.201233      200            2445.836      -12299.113     -9853.2769      0.0046049851   0.013178152  
      7200   249.67457      10.893129      200            2441.0825     -12294.568     -9853.4854      0.0046049851   0.013144494  
      7300   251.87828      9.8162049      200            2462.6283     -12316.224     -9853.5958      0.0046049851   0.01311029   
      7400   253.0512       9.769389       200            2474.096      -12327.902     -9853.8064      0.0046049851   0.013075537  
      7500   249.57688      11.146533      200            2440.1274     -12293.994     -9853.8661      0.0046049851   0.013040231  
      7600   252.18549      8.4244253      200            2465.6319     -12319.328     -9853.6961      0.0046049851   0.013004364  
      7700   253.37644      6.5179974      200            2477.2759     -12330.839     -9853.5627      0.0046049851   0.012967932  
      7800   251.98756      6.8351407      200            2463.6968     -12317.2       -9853.503       0.0046049851   0.012930926  
      7900   249.27456      8.0438035      200            2437.1716     -12290.683     -9853.5111      0.0046049851   0.012893341  
      8000   248.79014      7.3535625      200            2432.4354     -12285.875     -9853.4391      0.0046049851   0.012855171  
      8100   252.22009      5.2546662      200            2465.9702     -12319.441     -9853.4707      0.0046049851   0.012816404  
      8200   252.81933      4.8411442      200            2471.829      -12325.292     -9853.4626      0.0046049851   0.012777032  
      8300   250.13416      5.4597755      200            2445.576      -12299.015     -9853.4386      0.0046049851   0.012737047  
      8400   251.58406      4.727649       200            2459.7517     -12313.218     -9853.4667      0.0046049851   0.012696442  
      8500   248.26666      5.8371124      200            2427.3173     -12280.814     -9853.4963      0.0046049851   0.01265521   
      8600   250.87964      4.3914227      200            2452.8645     -12306.401     -9853.5366      0.0046049851   0.012613343  
      8700   249.30712      4.5582473      200            2437.4899     -12291.12      -9853.6302      0.0046049851   0.012570831  
      8800   247.18641      5.2296073      200            2416.7556     -12270.431     -9853.6756      0.0046049851   0.012527661  
      8900   244.84967      5.2568299      200            2393.9092     -12247.621     -9853.712       0.0046049851   0.012483824  
      9000   247.04326      2.923029       200            2415.356      -12268.82      -9853.4639      0.0046049851   0.012439308  
      9100   248.75077      1.1987364      200            2432.0504     -12285.61      -9853.56        0.0046049851   0.012394105  
      9200   246.86157      1.487104       200            2413.5796     -12267.03      -9853.4499      0.0046049851   0.012348201  
      9300   246.22594      1.6474429      200            2407.3651     -12260.986     -9853.6214      0.0046049851   0.012301584  
      9400   249.45807      0.87343381     200            2438.9658     -12293.018     -9854.0521      0.0046049851   0.012254242  
      9500   248.59373      2.0836439      200            2430.5151     -12284.875     -9854.3604      0.0046049851   0.012206162  
      9600   247.47052      2.700701       200            2419.5333     -12274.004     -9854.4711      0.0046049851   0.012157329  
      9700   248.82188      1.9334864      200            2432.7457     -12287.205     -9854.4594      0.0046049851   0.012107728  
      9800   246.51856      2.2370974      200            2410.226      -12264.625     -9854.3994      0.0046049851   0.012057342  
      9900   248.53936      0.64472299     200            2429.9835     -12284.656     -9854.6726      0.0046049851   0.012006154  
     10000   246.95437      0.72516245     200            2414.4869     -12269.495     -9855.0082      0.0046049851   0.011954147  
     10100   249.3987      -0.5479069      200            2438.3853     -12293.795     -9855.4102      0.0046049851   0.011901299  
     10200   250.12992     -0.64488408     200            2445.5345     -12301.297     -9855.7622      0.0046049851   0.011847584  
     10300   251.55775     -0.39622255     200            2459.4944     -12315.589     -9856.0942      0.0046049851   0.011792981  
     10400   248.3907       0.87208089     200            2428.5301     -12285.084     -9856.5543      0.0046049851   0.011737471  
     10500   247.73995      1.013984       200            2422.1676     -12279.021     -9856.8535      0.0046049851   0.011681027  
     10600   246.9623       1.195287       200            2414.5645     -12271.683     -9857.1189      0.0046049851   0.011623618  
     10700   246.97283      0.59385502     200            2414.6674     -12272.068     -9857.4008      0.0046049851   0.011565207  
     10800   245.29552      0.65457157     200            2398.2683     -12255.836     -9857.5677      0.0046049851   0.011505753  
     10900   244.63408     -0.011055805    200            2391.8013     -12249.577     -9857.7758      0.0046049851   0.011445209  
     11000   244.27283     -0.64360796     200            2388.2694     -12246.134     -9857.8649      0.0046049851   0.011383524  
     11100   246.3466      -1.2568075      200            2408.5447     -12266.472     -9857.9268      0.0046049851   0.011320641  
     11200   245.36053     -0.62524114     200            2398.9039     -12257.069     -9858.165       0.0046049851   0.011256492  
     11300   245.54054     -1.4379284      200            2400.6639     -12259.058     -9858.3942      0.0046049851   0.011190996  
     11400   248.97411     -3.5390637      200            2434.2341     -12292.777     -9858.5425      0.0046049851   0.011124062  
     11500   244.53294     -1.8877891      200            2390.8125     -12249.262     -9858.4496      0.0046049851   0.011055588  
     11600   247.57428     -2.3890999      200            2420.5478     -12278.989     -9858.4414      0.0046049851   0.010985515  
     11700   249.86353     -2.0636248      200            2442.93       -12301.181     -9858.2506      0.0046049851   0.010913985  
     11800   250.71412     -1.1925151      200            2451.2463     -12309.159     -9857.9132      0.0046049851   0.010841587  
     11900   252.24317     -1.3678235      200            2466.1958     -12324.031     -9857.8347      0.0046049851   0.010769781  
     12000   249.89601     -0.52196487     200            2443.2475     -12300.957     -9857.7091      0.0046049851   0.01070201   
     12100   249.50212     -0.36237503     200            2439.3965     -12296.977     -9857.5803      0.0046049851   0.01064427   
     12200   249.143       -0.31545217     200            2435.8854     -12293.246     -9857.361       0.0046049851   0.010603751  
     12300   251.55261     -2.2039149      200            2459.4442     -12316.54      -9857.0955      0.0046049851   0.010576208  
     12400   247.44832     -1.2080142      200            2419.3163     -12276.138     -9856.8218      0.0046049851   0.010551975  
     12500   244.21921     -0.31578086     200            2387.7451     -12244.242     -9856.4969      0.0046049851   0.010527818  
     12600   244.45842     -0.91282323     200            2390.0839     -12246.206     -9856.1224      0.0046049851   0.010502578  
     12700   245.23201     -1.2939198      200            2397.6474     -12253.554     -9855.9062      0.0046049851   0.010476452  
     12800   247.92754     -1.7722281      200            2424.0017     -12279.647     -9855.6455      0.0046049851   0.010451263  
     12900   247.91879     -1.3148776      200            2423.9161     -12279.286     -9855.3697      0.0046049851   0.010429826  
     13000   247.23116     -0.86590253     200            2417.1931     -12272.44      -9855.2471      0.0046049851   0.010412374  
     13100   249.51606     -0.98647089     200            2439.5328     -12294.845     -9855.3118      0.0046049851   0.010396244  
     13200   248.83256     -0.27275981     200            2432.8501     -12288.051     -9855.2012      0.0046049851   0.010379363  
     13300   249.76647     -0.9646427      200            2441.981      -12296.998     -9855.0174      0.0046049851   0.01036085   
     13400   250.60405     -1.5522759      200            2450.17       -12305.011     -9854.8408      0.0046049851   0.010340365  
     13500   253.81202     -2.9734783      200            2481.5346     -12336.259     -9854.7245      0.0046049851   0.010317783  
     13600   252.90105     -2.6375061      200            2472.6279     -12327.441     -9854.8129      0.0046049851   0.010293082  
     13700   248.55701     -0.70024145     200            2430.156      -12285.098     -9854.9422      0.0046049851   0.010266292  
     13800   248.9127      -0.56336945     200            2433.6336     -12288.535     -9854.9015      0.0046049851   0.010237453  
     13900   248.32577      0.42117985     200            2427.8952     -12282.724     -9854.8292      0.0046049851   0.010206587  
     14000   250.4142      -0.46706775     200            2448.3139     -12303.065     -9854.7515      0.0046049851   0.010173697  
     14100   254.64654     -3.1153217      200            2489.6937     -12344.508     -9854.8139      0.0046049851   0.010138766  
     14200   253.52995     -2.8534193      200            2478.7768     -12333.495     -9854.7185      0.0046049851   0.01010176   
     14300   248.09308      0.52963969     200            2425.6202     -12280.212     -9854.5921      0.0046049851   0.010062648  
     14400   247.16091      1.8045498      200            2416.5063     -12270.91      -9854.4035      0.0046049851   0.010021412  
     14500   257.01028     -2.1782871      200            2512.8041     -12367.064     -9854.26        0.0046049851   0.0099780252 
     14600   252.82314     -1.121768       200            2471.8663     -12326.006     -9854.14        0.0046049851   0.0099324393 
     14700   252.80563     -2.0436675      200            2471.6951     -12325.629     -9853.934       0.0046049851   0.0098846229 
     14800   251.63106     -2.1333325      200            2460.2112     -12314.175     -9853.9636      0.0046049851   0.0098345916 
     14900   251.03297     -1.6158826      200            2454.3637     -12308.185     -9853.8215      0.0046049851   0.0097824246 
     15000   252.26648     -1.3628901      200            2466.4238     -12320.072     -9853.6487      0.0046049851   0.0097282982 
     15100   253.14845     -1.3327839      200            2475.0468     -12328.64      -9853.593       0.0046049851   0.0096725245 
     15200   251.77169     -0.63994529     200            2461.5862     -12314.941     -9853.3551      0.0046049851   0.0096156156 
     15300   250.18924      0.24757718     200            2446.1144     -12299.142     -9853.0275      0.0046049851   0.0095583264 
     15400   250.19715      0.46938349     200            2446.1918     -12299.262     -9853.07        0.0046049851   0.0095015173 
     15500   253.95143     -0.88252698     200            2482.8976     -12335.964     -9853.0661      0.0046049851   0.0094459052 
     15600   252.3557      -0.29659189     200            2467.2961     -12320.248     -9852.9517      0.0046049851   0.0093918615 
     15700   253.14881     -0.51788665     200            2475.0503     -12327.824     -9852.7736      0.0046049851   0.0093392379 
     15800   254.56308     -1.0767207      200            2488.8778     -12341.506     -9852.6287      0.0046049851   0.0092875411 
     15900   255.53994     -1.8116504      200            2498.4285     -12350.918     -9852.4894      0.0046049851   0.0092367486 
     16000   255.12971     -1.937961       200            2494.4177     -12346.776     -9852.3579      0.0046049851   0.0091883367 
     16100   254.89124     -1.6304696      200            2492.0862     -12344.365     -9852.2791      0.0046049851   0.0091455234 
     16200   257.43657     -2.0603132      200            2516.972      -12369.286     -9852.3135      0.0046049851   0.0091105437 
     16300   255.26593     -0.49624441     200            2495.7495     -12348.162     -9852.4125      0.0046049851   0.0090812955 
     16400   254.68173      0.38620367     200            2490.0378     -12342.581     -9852.5433      0.0046049851   0.009054446  
     16500   255.92062      1.2075656      200            2502.1505     -12354.999     -9852.849       0.0046049851   0.0090304813 
     16600   255.33201      2.8789261      200            2496.3956     -12349.598     -9853.2025      0.0046049851   0.0090078334 
     16700   256.1502       3.6858766      200            2504.3951     -12357.9       -9853.5048      0.0046049851   0.0089834729 
     16800   258.53357      3.074464       200            2527.6974     -12381.539     -9853.8413      0.0046049851   0.0089570316 
     16900   258.19099      3.5277623      200            2524.348      -12378.569     -9854.2212      0.0046049851   0.0089287605 
     17000   260.25006      3.089905       200            2544.4797     -12399.222     -9854.7425      0.0046049851   0.0088989728 
     17100   258.65933      4.2852543      200            2528.927      -12384.13      -9855.2028      0.0046049851   0.008868889  
     17200   256.58523      5.7426628      200            2508.6484     -12364.438     -9855.7895      0.0046049851   0.0088424233 
     17300   257.44368      5.3783121      200            2517.0415     -12373.299     -9856.2573      0.0046049851   0.0088189541 
     17400   261.46235      2.992451       200            2556.3323     -12412.91      -9856.5777      0.0046049851   0.0087936884 
     17500   261.84017      1.4821735      200            2560.0263     -12416.804     -9856.7779      0.0046049851   0.0087649085 
     17600   259.29177      1.918825       200            2535.1104     -12392.088     -9856.978       0.0046049851   0.0087321131 
     17700   258.50061      2.4754623      200            2527.3752     -12384.673     -9857.298       0.0046049851   0.0086951391 
     17800   259.51478      2.0562398      200            2537.2908     -12394.912     -9857.6215      0.0046049851   0.0086539833 
     17900   265.49871     -0.79566765     200            2595.796      -12453.853     -9858.0572      0.0046049851   0.0086087546 
     18000   260.09351      1.3189001      200            2542.9491     -12401.624     -9858.6752      0.0046049851   0.0085596998 
     18100   256.23959      4.117023       200            2505.2691     -12364.483     -9859.2141      0.0046049851   0.0085073286 
     18200   257.06547      5.1193334      200            2513.3437     -12372.813     -9859.469       0.0046049851   0.0084528104 
     18300   252.92931      6.9133641      200            2472.9043     -12332.284     -9859.3797      0.0046049851   0.0084000612 
     18400   253.43195      6.1138887      200            2477.8186     -12337.043     -9859.2244      0.0046049851   0.0083587239 
     18500   257.94621      3.3675029      200            2521.9548     -12380.943     -9858.9878      0.0046049851   0.0083318463 
     18600   256.73877      3.4828215      200            2510.1496     -12368.947     -9858.7979      0.0046049851   0.0083129807 
     18700   255.51158      4.0267981      200            2498.1513     -12356.858     -9858.7072      0.0046049851   0.0082966195 
     18800   258.07066      3.2151813      200            2523.1716     -12381.666     -9858.4944      0.0046049851   0.0082782205 
     18900   255.12097      4.9583312      200            2494.3322     -12352.644     -9858.3121      0.0046049851   0.0082560138 
     19000   256.38176      5.0187376      200            2506.6591     -12364.826     -9858.1665      0.0046049851   0.008230349  
     19100   255.40386      5.5685571      200            2497.0981     -12355.045     -9857.9474      0.0046049851   0.0082011037 
     19200   256.91396      5.6851654      200            2511.8624     -12369.676     -9857.8137      0.0046049851   0.0081678772 
     19300   258.56087      4.9778619      200            2527.9643     -12385.594     -9857.6298      0.0046049851   0.0081307585 
     19400   263.14021      2.5907027      200            2572.7369     -12430.115     -9857.378       0.0046049851   0.0080910455 
     19500   262.63333      2.7150745      200            2567.7811     -12425.045     -9857.2639      0.0046049851   0.0080513809 
     19600   262.75074      2.2031803      200            2568.929      -12425.969     -9857.0405      0.0046049851   0.0080149712 
     19700   262.77285      1.9032676      200            2569.1451     -12425.8       -9856.6545      0.0046049851   0.0079848618 
     19800   261.93281      1.9022455      200            2560.932      -12417.239     -9856.3073      0.0046049851   0.0079618264 
     19900   263.1978       1.3614719      200            2573.2999     -12429.191     -9855.8916      0.0046049851   0.0079428307 
     20000   258.54444      3.3702801      200            2527.8038     -12383.393     -9855.5897      0.0046049851   0.0079238779 
     20100   262.04887      1.2661208      200            2562.0667     -12417.242     -9855.1749      0.0046049851   0.0079023917 
     20200   262.51736     -0.61860133     200            2566.6472     -12421.401     -9854.7541      0.0046049851   0.0078769109 
     20300   260.55168     -1.0315443      200            2547.4286     -12402.112     -9854.6832      0.0046049851   0.0078468677 
     20400   255.146        0.58081148     200            2494.577      -12349.037     -9854.4598      0.0046049851   0.007812545  
     20500   259.37069     -1.4863242      200            2535.882      -12390.037     -9854.1554      0.0046049851   0.0077752245 
     20600   258.56317     -1.5687059      200            2527.9869     -12381.842     -9853.8555      0.0046049851   0.0077363066 
     20700   258.93924     -1.6020608      200            2531.6637     -12385.303     -9853.6393      0.0046049851   0.0076943784 
     20800   259.70098     -2.6753358      200            2539.1113     -12392.702     -9853.591       0.0046049851   0.0076475307 
     20900   257.10632     -1.7515522      200            2513.7432     -12367.303     -9853.5601      0.0046049851   0.0075961102 
     21000   251.82308      0.77671808     200            2462.0886     -12315.73      -9853.6415      0.0046049851   0.0075414233 
     21100   256.31595     -1.0737686      200            2506.0156     -12359.755     -9853.7396      0.0046049851   0.0074847621 
     21200   256.40254     -1.3482144      200            2506.8622     -12360.536     -9853.6737      0.0046049851   0.0074273613 
     21300   256.76881     -1.4857312      200            2510.4433     -12364.206     -9853.7623      0.0046049851   0.0073696881 
     21400   252.42452      0.18343008     200            2467.969      -12321.831     -9853.8617      0.0046049851   0.0073107359 
     21500   252.04625     -0.069294149    200            2464.2705     -12319.341     -9855.0701      0.0046049851   0.0072484814 
     21600   252.43504     -0.025519868    200            2468.0718     -12323.248     -9855.1758      0.0046049851   0.0071831594 
     21700   255.53244     -0.61828843     200            2498.3552     -12353.748     -9855.3931      0.0046049851   0.0071229811 
     21800   257.16478     -0.8245328      200            2514.3147     -12369.811     -9855.4967      0.0046049851   0.0070854456 
     21900   257.30074     -0.73600005     200            2515.644      -12371.313     -9855.6691      0.0046049851   0.0070705145 
     22000   260.4602      -2.1254034      200            2546.5342     -12402.442     -9855.9077      0.0046049851   0.0070611362 
     22100   258.12573     -1.1672365      200            2523.71       -12379.787     -9856.0771      0.0046049851   0.0070483823 
     22200   256.78174     -0.65238963     200            2510.5697     -12366.85      -9856.2807      0.0046049851   0.0070298806 
     22300   260.57471     -2.3931507      200            2547.6538     -12404.338     -9856.6838      0.0046049851   0.0070055027 
     22400   256.46362     -0.36046915     200            2507.4594     -12364.619     -9857.1593      0.0046049851   0.0069769739 
     22500   254.92977      0.88238491     200            2492.4629     -12350.076     -9857.6129      0.0046049851   0.0069496572 
     22600   259.59714      0.029647717    200            2538.096      -12396.141     -9858.0448      0.0046049851   0.006920434  
     22700   259.26081      0.92338785     200            2534.8077     -12393.315     -9858.5077      0.0046049851   0.006888812  
     22800   260.7588       0.40546176     200            2549.4536     -12408.303     -9858.8497      0.0046049851   0.0068581468 
     22900   259.16391      0.90802026     200            2533.8603     -12393.03      -9859.1699      0.0046049851   0.006819773  
     23000   261.33783     -0.33061027     200            2555.1148     -12414.657     -9859.5418      0.0046049851   0.0067695024 
     23100   264.21945     -1.2865112      200            2583.2886     -12443.189     -9859.9006      0.0046049851   0.0067052178 
     23200   266.18712     -0.55066946     200            2602.5266     -12462.832     -9860.3053      0.0046049851   0.0066254973 
     23300   264.32818      1.8228156      200            2584.3517     -12444.884     -9860.5321      0.0046049851   0.0065329309 
     23400   268.53135      1.3893887      200            2625.4464     -12486.284     -9860.8381      0.0046049851   0.0064373552 
     23500   267.7706       2.6111186      200            2618.0084     -12478.874     -9860.8652      0.0046049851   0.006336544  
     23600   268.13992      2.7127981      200            2621.6193     -12482.466     -9860.847       0.0046049851   0.0062214362 
     23700   266.45963      3.6734684      200            2605.1909     -12466.069     -9860.8779      0.0046049851   0.0060969872 
     23800   261.74514      6.3111332      200            2559.0972     -12419.905     -9860.8081      0.0046049851   0.0060035799 
     23900   269.24774      4.3473201      200            2632.4505     -12493.123     -9860.6725      0.0046049851   0.0059756709 
     24000   274.69616      3.7159172      200            2685.72       -12546.651     -9860.9308      0.0046049851   0.0059511563 
     24100   276.69516      6.7263321      200            2705.2644     -12566.519     -9861.2542      0.0046049851   0.0058940227 
     24200   274.3164       14.05162       200            2682.0071     -12543.606     -9861.5987      0.0046049851   0.0057897536 
     24300   280.37006      4.2558184      200            2741.1941     -12602.713     -9861.5191      0.0046049851   0.0057874744 
     24400   270.50795      5.7635553      200            2644.7716     -12506.641     -9861.8695      0.0046049851   0.0057861788 
     24500   268.38371      5.5369776      200            2624.0028     -12486.118     -9862.1148      0.0046049851   0.005787111  
     24600   268.30486      4.6615114      200            2623.2319     -12485.538     -9862.3065      0.0046049851   0.005786422  
     24700   272.4159       4.2575472      200            2663.4258     -12525.539     -9862.1132      0.0046049851   0.0057742329 
     24800   277.2196       8.9340507      200            2710.3919     -12571.803     -9861.4108      0.0046049851   0.005740314  
     24900   282.09119      0.40696891     200            2758.0216     -12619.838     -9861.8166      0.0046049851   0.0058150114 
     25000   273.97966      0.081967728    200            2678.7147     -12540.771     -9862.0561      0.0046049851   0.0058733869 
     25100   267.41363      1.9511114      200            2614.5183     -12476.368     -9861.8498      0.0046049851   0.0059012358 
     25200   270.80575      1.1560489      200            2647.6832     -12508.826     -9861.1427      0.0046049851   0.0059008194 
     25300   281.16882     -0.31928848     200            2749.0035     -12608.82      -9859.8168      0.0046049851   0.0058637244 
     25400   271.26281      9.6963879      200            2652.152      -12510.196     -9858.0438      0.0046049851   0.0057831499 
     25500   274.33624      1.9111195      200            2682.201      -12540.695     -9858.4941      0.0046049851   0.0059299926 
     25600   270.29707      0.2234145      200            2642.7098     -12501.194     -9858.4841      0.0046049851   0.0060241025 
     25700   271.98605     -1.1764208      200            2659.2231     -12517.26      -9858.0374      0.0046049851   0.0060569508 
     25800   276.02401     -1.2184581      200            2698.7025     -12556.254     -9857.5519      0.0046049851   0.0060281101 
     25900   285.48301      0.44058015     200            2791.1837     -12648.189     -9857.0055      0.0046049851   0.005923733  
     26000   285.2867       2.2324489      200            2789.2643     -12646.229     -9856.9646      0.0046049851   0.0059219917 
     26100   275.7354      -1.3471883      200            2695.8807     -12553.478     -9857.5976      0.0046049851   0.0061070106 
     26200   273.18717     -3.3021951      200            2670.9666     -12528.686     -9857.7196      0.0046049851   0.0061926092 
     26300   265.79091     -1.0488175      200            2598.6529     -12456.67      -9858.0169      0.0046049851   0.0062012945 
     26400   270.41088     -1.835501       200            2643.8226     -12502.047     -9858.224       0.0046049851   0.0061343303 
     26500   280.55538     -1.7234207      200            2743.006      -12601.165     -9858.1594      0.0046049851   0.0059728625 
     26600   283.48796     -0.14895925     200            2771.6779     -12630.206     -9858.5284      0.0046049851   0.0058749395 
     26700   266.28202     -1.2240728      200            2603.4545     -12463.442     -9859.9875      0.0046049851   0.0060389705 
     26800   262.64206     -2.7982748      200            2567.8664     -12428.787     -9860.921       0.0046049851   0.0060998756 
     26900   264.41735     -4.3044757      200            2585.2235     -12446.818     -9861.5949      0.0046049851   0.006086247  
     27000   270.16245     -4.5309626      200            2641.3936     -12503.171     -9861.7773      0.0046049851   0.0060036132 
     27100   279.65586     -3.1739874      200            2734.2112     -12595.829     -9861.6181      0.0046049851   0.0058410479 
     27200   288.11932     -3.013956       200            2816.959      -12678.382     -9861.4229      0.0046049851   0.0057299672 
     27300   271.05714     -3.1652391      200            2650.1411     -12512.033     -9861.8924      0.0046049851   0.0058297387 
     27400   263.8005      -2.8863886      200            2579.1925     -12440.638     -9861.4454      0.0046049851   0.0058552928 
     27500   259.64411     -2.8313243      200            2538.5552     -12399.311     -9860.756       0.0046049851   0.0058267448 
     27600   265.81121     -4.6117685      200            2598.8513     -12458.91      -9860.0582      0.0046049851   0.0057477768 
     27700   275.69744     -3.6031148      200            2695.5096     -12555.023     -9859.5138      0.0046049851   0.0056127635 
     27800   280.60533     -3.9003621      200            2743.4943     -12602.546     -9859.0521      0.0046049851   0.0055251888 
     27900   266.569       -2.9512685      200            2606.2603     -12464.518     -9858.2575      0.0046049851   0.0055277337 
     28000   266.01058     -2.5652645      200            2600.8006     -12458.383     -9857.5826      0.0046049851   0.0055071341 
     28100   269.01109     -3.2746599      200            2630.1368     -12487.146     -9857.0091      0.0046049851   0.0054718184 
     28200   270.3089      -2.8023919      200            2642.8255     -12499.585     -9856.7597      0.0046049851   0.0054253725 
     28300   284.69613     -2.9427973      200            2783.4902     -12640.367     -9856.877       0.0046049851   0.0053696819 
     28400   278.92722     -2.7179274      200            2727.0874     -12583.04      -9855.9524      0.0046049851   0.005310086  
     28500   267.52536     -4.0184765      200            2615.6106     -12470.23      -9854.6197      0.0046049851   0.0052576288 
     28600   270.25058     -7.1496225      200            2642.2553     -12496.29      -9854.0346      0.0046049851   0.0052220777 
     28700   266.08798     -4.9485263      200            2601.5574     -12455.469     -9853.9112      0.0046049851   0.0052024829 
     28800   272.315       -4.667923       200            2662.4392     -12516.694     -9854.255       0.0046049851   0.0052010303 
     28900   273.5055       2.8861949      200            2674.0789     -12529.087     -9855.0083      0.0046049851   0.0052247675 
     29000   275.54457     -3.0308298      200            2694.0149     -12548.614     -9854.5987      0.0046049851   0.0051293677 
     29100   273.59141     -5.0637225      200            2674.9188     -12529.455     -9854.5361      0.0046049851   0.0050565631 
     29200   265.71269     -2.052033       200            2597.8882     -12452.492     -9854.6038      0.0046049851   0.0050217232 
     29300   270.20949     -2.0074955      200            2641.8536     -12496.795     -9854.9413      0.0046049851   0.0050228515 
     29400   275.6895       0.54667434     200            2695.432      -12551.012     -9855.5796      0.0046049851   0.0050675891 
     29500   284.97757      3.1332074      200            2786.2419     -12642.448     -9856.206       0.0046049851   0.0051022501 
     29600   276.52484      0.35929232     200            2703.5991     -12559.784     -9856.1847      0.0046049851   0.0049632711 
     29700   270.41702      1.9568542      200            2643.8826     -12500.331     -9856.4486      0.0046049851   0.004890818  
     29800   271.9115       2.7809617      200            2658.4942     -12515.43      -9856.936       0.0046049851   0.0048720484 
     29900   275.87442      3.9012627      200            2697.2399     -12554.6       -9857.3604      0.0046049851   0.0049068388 
     30000   289.97708      5.2092297      200            2835.1224     -12693.002     -9857.8795      0.0046049851   0.0050133007 
     30100   289.63062      2.8329506      200            2831.735      -12689.72      -9857.9854      0.0046049851   0.0049549949 
     30200   275.75206      3.0844159      200            2696.0436     -12554.041     -9857.997       0.0046049851   0.0048321499 
     30300   269.26433      3.9098447      200            2632.6127     -12490.901     -9858.288       0.0046049851   0.0047825298 
     30400   275.7649       1.5678106      200            2696.1692     -12554.797     -9858.6283      0.0046049851   0.0047944872 
     30500   283.19516      2.2736189      200            2768.8152     -12627.999     -9859.1842      0.0046049851   0.0048745367 
     30600   275.03931      12.53462       200            2689.075      -12549.088     -9860.0127      0.0046049851   0.0050110119 
     30700   278.37898      4.7867241      200            2721.7271     -12581.455     -9859.7279      0.0046049851   0.0048347732 
     30800   277.19683      1.3582278      200            2710.1692     -12569.777     -9859.6073      0.0046049851   0.0047384933 
     30900   271.40709      1.3788671      200            2653.5626     -12513.323     -9859.7607      0.0046049851   0.0047150111 
     31000   273.70504      0.69072754     200            2676.0297     -12536.2       -9860.1706      0.0046049851   0.0047605127 
WARNING: Bond/angle/dihedral extent > half of periodic box length (src/domain.cpp:935)
Loop time of 348.174 on 1 procs for 30000 steps with 3281 atoms

Performance: 0.744 ns/day, 32.238 hours/ns, 86.164 timesteps/s, 282.704 katom-step/s
110.8% CPU use with 1 MPI tasks x 1 OpenMP threads

MPI task timing breakdown:
Section |  min time  |  avg time  |  max time  |%varavg| %total
---------------------------------------------------------------
Pair    | 242.27     | 242.27     | 242.27     |   0.0 | 69.58
Bond    | 0.75283    | 0.75283    | 0.75283    |   0.0 |  0.22
Kspace  | 101.62     | 101.62     | 101.62     |   0.0 | 29.19
Neigh   | 1.9679     | 1.9679     | 1.9679     |   0.0 |  0.57
Comm    | 0.049077   | 0.049077   | 0.049077   |   0.0 |  0.01
Output  | 0.56102    | 0.56102    | 0.56102    |   0.0 |  0.16
Modify  | 0.58542    | 0.58542    | 0.58542    |   0.0 |  0.17
Other   |            | 0.3722     |            |       |  0.11

Nlocal:           3281 ave        3281 max        3281 min
Histogram: 1 0 0 0 0 0 0 0 0 0
Nghost:              2 ave           2 max           2 min
Histogram: 1 0 0 0 0 0 0 0 0 0
Neighs:    1.08855e+06 ave 1.08855e+06 max 1.08855e+06 min
Histogram: 1 0 0 0 0 0 0 0 0 0

Total # of neighbors = 1088554
Ave neighs/atom = 331.77507
Ave special neighs/atom = 10.796099
Neighbor list builds = 169
Dangerous builds = 0
Total wall time: 0:07:12
